##################################################################
# LAMMPS input file generated using pylion 0.5.3
# simulation name: test
#
# pylion is written and maintained by Dimitris Trypogeorgos
# and Elliot Bentine. Download it from
# https://bitbucket.org/dtrypogeorgos/pylion
#
# If you find it useful please cite <paper>.
##################################################################



units si
atom_style charge

# Creating simulation box...
boundary m m m
region simulationDomain block -0.001  0.001 -0.001 0.001 -0.001 0.001 units box
create_box 1 simulationDomain

# Configure neighbour list...
neighbor 1 nsq
neigh_modify once yes

# Configure pairwise interactions for long range Coulombics only...
pair_style coul/cut 10
pair_coeff * *

# Placing individual ions...


create_atoms 1 single 1.1893276614857157e-05 0.00011778680596346785 5.3218209911706775e-05 units box

create_atoms 1 single 0.00031563294242356794 8.676667121047478e-05 -0.0007569183572262453 units box

create_atoms 1 single 0.0005723100229504144 0.0005579524729689552 9.620614064327958e-06 units box


# Species...
mass 1 1.4944851e-26
set type 1 charge 1.6021764599999998e-19
group 1 type 1


timestep 1e-06

# Configuring additional output to flush buffer during simulation...
thermo 10000
thermo_style custom step cpu
thermo_modify flush yes

# Time integration...

group nonRigidBody union all

fix timeIntegrator nonRigidBody nve



dump 8983082447 all custom 10 /Users/michaelmitchell/qlicS/data/2024-07-11_14-02-48/positions.txt id x y z vx vy vz





# Pseudopotential approximation for Linear Paul trap... (fixID=8987598311)


# SHO

variable k_x8987598311		equal 2.973789e-13

variable k_y8987598311		equal 2.973789e-13

variable k_z8987598311		equal 4.835556e-14

variable fX8987598311 atom "-v_k_x8987598311 * x"

variable fY8987598311 atom "-v_k_y8987598311 * y"

variable fZ8987598311 atom "-v_k_z8987598311 * z"

variable E8987598311 atom "v_k_x8987598311 * x * x /         2 + v_k_y8987598311 * y * y / 2 + v_k_z8987598311 * z * z / 2"

fix 8987598311 1 addforce         v_fX8987598311 v_fY8987598311 v_fZ8987598311 energy v_E8987598311




variable coolx atom (9.269386030594033e-20+(2.703426035144626e-21*vx))*-0.5000000000000001
variable cooly atom (9.269386030594033e-20+2.703426035144626e-21*vy)*-0.5000000000000001
variable coolz atom (9.269386030594033e-20+2.703426035144626e-21*vz)*-0.7071067811865476
fix 569202603907002 1 addforce v_coolx v_cooly v_coolz



timestep 1e-07


# Run simulation

run 50000


