##################################################################
# LAMMPS input file generated using pylion 0.5.3
# simulation name: test
#
# pylion is written and maintained by Dimitris Trypogeorgos
# and Elliot Bentine. Download it from
# https://bitbucket.org/dtrypogeorgos/pylion
#
# If you find it useful please cite <paper>.
##################################################################



units si
atom_style charge

# Creating simulation box...
boundary m m m
region simulationDomain block -0.001  0.001 -0.001 0.001 -0.001 0.001 units box
create_box 2 simulationDomain

# Configure neighbour list...
neighbor 1 nsq
neigh_modify once yes

# Configure pairwise interactions for long range Coulombics only...
pair_style coul/cut 10
pair_coeff * *

# Placing individual ions...


create_atoms 1 single 0.00010743947175884377 -6.160845436335825e-05 0.0002957866794505302 units box

create_atoms 1 single 1.7244855431581506e-05 -9.153411903053789e-05 0.00014564001903509432 units box

create_atoms 1 single 0.0005511152288001114 -0.00040627667174365333 -0.00046895609615772444 units box

create_atoms 1 single -3.1149923058970015e-05 -0.00016364267408827023 -0.0006560169332128994 units box

create_atoms 1 single -1.804750303357096e-05 -1.040265222362389e-05 7.395831871112195e-05 units box

create_atoms 1 single -3.376532379287696e-05 -0.00021641114542998109 0.00022902439183534573 units box

create_atoms 1 single 1.534491584293023e-05 2.020071322998851e-05 -5.1717982011096375e-05 units box

create_atoms 1 single -0.00041915218697614263 -8.28030171651828e-05 -0.0004566593222765801 units box

create_atoms 1 single -0.0005013112861832414 -0.00039388522009812084 0.00042313553307698256 units box

create_atoms 1 single -0.000250132401940659 -0.0005911119516307048 -0.0004788886801880104 units box

create_atoms 1 single -3.69818611497274e-05 0.00040304458113237066 -0.000532696998366388 units box

create_atoms 1 single -3.0471161196622775e-05 -0.0008756729151630676 0.00011589844676439061 units box

create_atoms 1 single -0.0001482749920481348 0.00028382703102398487 0.0009039496029795218 units box

create_atoms 1 single 0.0004559358904918615 -0.00042617634466763564 -0.00010453291203603133 units box

create_atoms 1 single -5.296921996236356e-05 3.708649132895876e-05 -0.00012754840129833062 units box

create_atoms 1 single 0.00018068271295664074 -0.0001239136958623098 0.0002184558306022225 units box

create_atoms 1 single 0.00039649880194985343 -0.00013023347257398312 0.00035191239617029206 units box

create_atoms 1 single -2.5825123517033083e-06 1.7716371501194069e-07 9.574564320374018e-06 units box

create_atoms 1 single 2.503063157388983e-06 9.672962806241605e-06 -4.37251806186337e-05 units box

create_atoms 1 single 0.00011386461564350833 -0.00034059402621026616 0.00042569207948733195 units box


# Species...
mass 1 1.4944851e-26
set type 1 charge 1.6021764599999998e-19
group 1 type 1



create_atoms 2 single -0.00035379928705931823 -0.00016722509400201043 -0.0005561386229220929 units box

create_atoms 2 single -2.1598918536112177e-05 2.5198609806047784e-07 -0.0005237002347440494 units box

create_atoms 2 single 2.326336698013882e-06 1.3807207983610974e-06 -6.473294594156664e-06 units box

create_atoms 2 single -1.909675448605534e-05 6.805647903540753e-05 -4.093300380832983e-05 units box

create_atoms 2 single -7.192096276717351e-05 -5.9266172329548416e-05 0.000499246341383104 units box

create_atoms 2 single 2.7005120211117227e-05 4.254332150058447e-05 0.000990038169819954 units box

create_atoms 2 single 1.7548899381675754e-05 0.0002249339925337562 0.0009733783699828573 units box

create_atoms 2 single 5.180600313059945e-05 -0.00022890529737331115 -0.0001050771129930344 units box

create_atoms 2 single -2.4429729202510555e-05 -8.67147701125984e-06 0.00022947574046658847 units box

create_atoms 2 single 0.00013156190867358498 -0.0007803666744104871 -0.00041808471279630233 units box


# Species...
mass 2 5.3137248e-26
set type 2 charge 1.6021764599999998e-19
group 2 type 2



# Configuring additional output to flush buffer during simulation...
thermo 10000
thermo_style custom step cpu
thermo_modify flush yes

# Time integration...

group nonRigidBody union all

fix timeIntegrator nonRigidBody nve



dump 9324087843 all custom 10 /Users/michaelmitchell/qlicS/data/2024-07-15_13-00-44/positions.txt id x y z vx vy vz





# Pseudopotential approximation for Linear Paul trap... (fixID=9465212537)


# SHO

variable k_x9465212537		equal 1.773509e-12

variable k_y9465212537		equal 1.773509e-12

variable k_z9465212537		equal 1.548694e-13

variable fX9465212537 atom "-v_k_x9465212537 * x"

variable fY9465212537 atom "-v_k_y9465212537 * y"

variable fZ9465212537 atom "-v_k_z9465212537 * z"

variable E9465212537 atom "v_k_x9465212537 * x * x /         2 + v_k_y9465212537 * y * y / 2 + v_k_z9465212537 * z * z / 2"

fix 9465212537 1 addforce         v_fX9465212537 v_fY9465212537 v_fZ9465212537 energy v_E9465212537




variable coolx atom (9.269386030594033e-20+(2.703426035144626e-21*vx))*-0.5000000000000001
variable cooly atom (9.269386030594033e-20+2.703426035144626e-21*vy)*-0.5000000000000001
variable coolz atom (9.269386030594033e-20+2.703426035144626e-21*vz)*-0.7071067811865476
fix 569202603907002 1 addforce v_coolx v_cooly v_coolz



timestep 1e-08


# Run simulation

run 20000





# Deleting a fix by uid

unfix 569202603907002




variable E equal 0
variable Ex atom (0.003*(319.039+-320779.0*(x-0)+163840000.0*(x-0)^2+3188.37*(y-0)+-158115000.0*(y-0)^2+-0.483258*(z-0)+16206.1*(z-0)^2))*cos((2*3.141592653589793)*0.005*step)
variable B equal 0
variable Ey atom (0.003*(-3.62944+3527.19*(x-0)+660075.0*(x-0)^2+320888.0*(y-0)+-1252000.0*(y-0)^2+1.91814*(z-0)+13573.5*(z-0)^2))*cos((2*3.141592653589793)*0.005*step)
variable C equal 0
variable Ez atom (0.003*(0.00111849+-0.582074*(x-0)+-789.5*(x-0)^2+2.08274*(y-0)+1408.33*(y-0)^2+-57.5482*(z-0)+153.512*(z-0)^2))*cos((2*3.141592653589793)*0.005*step)
fix 469202603907007 all efield v_Ex v_Ey v_Ez



timestep 1e-08


# Run simulation

run 1000




timestep 1e-09


# Run simulation

run 1000




variable coolx atom (9.269386030594033e-20+(2.703426035144626e-21*vx))*-0.5000000000000001
variable cooly atom (9.269386030594033e-20+2.703426035144626e-21*vy)*-0.5000000000000001
variable coolz atom (9.269386030594033e-20+2.703426035144626e-21*vz)*-0.7071067811865476
fix 569202603907003 1 addforce v_coolx v_cooly v_coolz



timestep 1e-08


# Run simulation

run 2000





# Deleting a fix by uid

unfix 469202603907007





# Deleting a fix by uid

unfix 569202603907003




variable E equal 0
variable Ex atom (0.003*(319.039+-320779.0*(x-0)+163840000.0*(x-0)^2+3188.37*(y-0)+-158115000.0*(y-0)^2+-0.483258*(z-0)+16206.1*(z-0)^2))*cos((2*3.141592653589793)*0.006*step)
variable B equal 0
variable Ey atom (0.003*(-3.62944+3527.19*(x-0)+660075.0*(x-0)^2+320888.0*(y-0)+-1252000.0*(y-0)^2+1.91814*(z-0)+13573.5*(z-0)^2))*cos((2*3.141592653589793)*0.006*step)
variable C equal 0
variable Ez atom (0.003*(0.00111849+-0.582074*(x-0)+-789.5*(x-0)^2+2.08274*(y-0)+1408.33*(y-0)^2+-57.5482*(z-0)+153.512*(z-0)^2))*cos((2*3.141592653589793)*0.006*step)
fix 469202603907008 all efield v_Ex v_Ey v_Ez



timestep 1e-08


# Run simulation

run 1000




timestep 1e-09


# Run simulation

run 1000




variable coolx atom (9.269386030594033e-20+(2.703426035144626e-21*vx))*-0.5000000000000001
variable cooly atom (9.269386030594033e-20+2.703426035144626e-21*vy)*-0.5000000000000001
variable coolz atom (9.269386030594033e-20+2.703426035144626e-21*vz)*-0.7071067811865476
fix 569202603907004 1 addforce v_coolx v_cooly v_coolz



timestep 1e-08


# Run simulation

run 2000





# Deleting a fix by uid

unfix 469202603907008





# Deleting a fix by uid

unfix 569202603907004




variable E equal 0
variable Ex atom (0.003*(319.039+-320779.0*(x-0)+163840000.0*(x-0)^2+3188.37*(y-0)+-158115000.0*(y-0)^2+-0.483258*(z-0)+16206.1*(z-0)^2))*cos((2*3.141592653589793)*0.006500000000000001*step)
variable B equal 0
variable Ey atom (0.003*(-3.62944+3527.19*(x-0)+660075.0*(x-0)^2+320888.0*(y-0)+-1252000.0*(y-0)^2+1.91814*(z-0)+13573.5*(z-0)^2))*cos((2*3.141592653589793)*0.006500000000000001*step)
variable C equal 0
variable Ez atom (0.003*(0.00111849+-0.582074*(x-0)+-789.5*(x-0)^2+2.08274*(y-0)+1408.33*(y-0)^2+-57.5482*(z-0)+153.512*(z-0)^2))*cos((2*3.141592653589793)*0.006500000000000001*step)
fix 469202603907009 all efield v_Ex v_Ey v_Ez



timestep 1e-08


# Run simulation

run 1000




timestep 1e-09


# Run simulation

run 1000




variable coolx atom (9.269386030594033e-20+(2.703426035144626e-21*vx))*-0.5000000000000001
variable cooly atom (9.269386030594033e-20+2.703426035144626e-21*vy)*-0.5000000000000001
variable coolz atom (9.269386030594033e-20+2.703426035144626e-21*vz)*-0.7071067811865476
fix 569202603907005 1 addforce v_coolx v_cooly v_coolz



timestep 1e-08


# Run simulation

run 2000





# Deleting a fix by uid

unfix 469202603907009





# Deleting a fix by uid

unfix 569202603907005




variable E equal 0
variable Ex atom (0.003*(319.039+-320779.0*(x-0)+163840000.0*(x-0)^2+3188.37*(y-0)+-158115000.0*(y-0)^2+-0.483258*(z-0)+16206.1*(z-0)^2))*cos((2*3.141592653589793)*0.007*step)
variable B equal 0
variable Ey atom (0.003*(-3.62944+3527.19*(x-0)+660075.0*(x-0)^2+320888.0*(y-0)+-1252000.0*(y-0)^2+1.91814*(z-0)+13573.5*(z-0)^2))*cos((2*3.141592653589793)*0.007*step)
variable C equal 0
variable Ez atom (0.003*(0.00111849+-0.582074*(x-0)+-789.5*(x-0)^2+2.08274*(y-0)+1408.33*(y-0)^2+-57.5482*(z-0)+153.512*(z-0)^2))*cos((2*3.141592653589793)*0.007*step)
fix 469202603907010 all efield v_Ex v_Ey v_Ez



timestep 1e-08


# Run simulation

run 1000




timestep 1e-09


# Run simulation

run 1000




variable coolx atom (9.269386030594033e-20+(2.703426035144626e-21*vx))*-0.5000000000000001
variable cooly atom (9.269386030594033e-20+2.703426035144626e-21*vy)*-0.5000000000000001
variable coolz atom (9.269386030594033e-20+2.703426035144626e-21*vz)*-0.7071067811865476
fix 569202603907006 1 addforce v_coolx v_cooly v_coolz



timestep 1e-08


# Run simulation

run 2000





# Deleting a fix by uid

unfix 469202603907010





# Deleting a fix by uid

unfix 569202603907006




variable E equal 0
variable Ex atom (0.003*(319.039+-320779.0*(x-0)+163840000.0*(x-0)^2+3188.37*(y-0)+-158115000.0*(y-0)^2+-0.483258*(z-0)+16206.1*(z-0)^2))*cos((2*3.141592653589793)*0.0071*step)
variable B equal 0
variable Ey atom (0.003*(-3.62944+3527.19*(x-0)+660075.0*(x-0)^2+320888.0*(y-0)+-1252000.0*(y-0)^2+1.91814*(z-0)+13573.5*(z-0)^2))*cos((2*3.141592653589793)*0.0071*step)
variable C equal 0
variable Ez atom (0.003*(0.00111849+-0.582074*(x-0)+-789.5*(x-0)^2+2.08274*(y-0)+1408.33*(y-0)^2+-57.5482*(z-0)+153.512*(z-0)^2))*cos((2*3.141592653589793)*0.0071*step)
fix 469202603907011 all efield v_Ex v_Ey v_Ez



timestep 1e-08


# Run simulation

run 1000




timestep 1e-09


# Run simulation

run 1000




variable coolx atom (9.269386030594033e-20+(2.703426035144626e-21*vx))*-0.5000000000000001
variable cooly atom (9.269386030594033e-20+2.703426035144626e-21*vy)*-0.5000000000000001
variable coolz atom (9.269386030594033e-20+2.703426035144626e-21*vz)*-0.7071067811865476
fix 569202603907007 1 addforce v_coolx v_cooly v_coolz



timestep 1e-08


# Run simulation

run 2000





# Deleting a fix by uid

unfix 469202603907011





# Deleting a fix by uid

unfix 569202603907007




variable E equal 0
variable Ex atom (0.003*(319.039+-320779.0*(x-0)+163840000.0*(x-0)^2+3188.37*(y-0)+-158115000.0*(y-0)^2+-0.483258*(z-0)+16206.1*(z-0)^2))*cos((2*3.141592653589793)*0.00715*step)
variable B equal 0
variable Ey atom (0.003*(-3.62944+3527.19*(x-0)+660075.0*(x-0)^2+320888.0*(y-0)+-1252000.0*(y-0)^2+1.91814*(z-0)+13573.5*(z-0)^2))*cos((2*3.141592653589793)*0.00715*step)
variable C equal 0
variable Ez atom (0.003*(0.00111849+-0.582074*(x-0)+-789.5*(x-0)^2+2.08274*(y-0)+1408.33*(y-0)^2+-57.5482*(z-0)+153.512*(z-0)^2))*cos((2*3.141592653589793)*0.00715*step)
fix 469202603907012 all efield v_Ex v_Ey v_Ez



timestep 1e-08


# Run simulation

run 1000




timestep 1e-09


# Run simulation

run 1000




variable coolx atom (9.269386030594033e-20+(2.703426035144626e-21*vx))*-0.5000000000000001
variable cooly atom (9.269386030594033e-20+2.703426035144626e-21*vy)*-0.5000000000000001
variable coolz atom (9.269386030594033e-20+2.703426035144626e-21*vz)*-0.7071067811865476
fix 569202603907008 1 addforce v_coolx v_cooly v_coolz



timestep 1e-08


# Run simulation

run 2000





# Deleting a fix by uid

unfix 469202603907012





# Deleting a fix by uid

unfix 569202603907008




variable E equal 0
variable Ex atom (0.003*(319.039+-320779.0*(x-0)+163840000.0*(x-0)^2+3188.37*(y-0)+-158115000.0*(y-0)^2+-0.483258*(z-0)+16206.1*(z-0)^2))*cos((2*3.141592653589793)*0.0072*step)
variable B equal 0
variable Ey atom (0.003*(-3.62944+3527.19*(x-0)+660075.0*(x-0)^2+320888.0*(y-0)+-1252000.0*(y-0)^2+1.91814*(z-0)+13573.5*(z-0)^2))*cos((2*3.141592653589793)*0.0072*step)
variable C equal 0
variable Ez atom (0.003*(0.00111849+-0.582074*(x-0)+-789.5*(x-0)^2+2.08274*(y-0)+1408.33*(y-0)^2+-57.5482*(z-0)+153.512*(z-0)^2))*cos((2*3.141592653589793)*0.0072*step)
fix 469202603907013 all efield v_Ex v_Ey v_Ez



timestep 1e-08


# Run simulation

run 1000




timestep 1e-09


# Run simulation

run 1000




variable coolx atom (9.269386030594033e-20+(2.703426035144626e-21*vx))*-0.5000000000000001
variable cooly atom (9.269386030594033e-20+2.703426035144626e-21*vy)*-0.5000000000000001
variable coolz atom (9.269386030594033e-20+2.703426035144626e-21*vz)*-0.7071067811865476
fix 569202603907009 1 addforce v_coolx v_cooly v_coolz



timestep 1e-08


# Run simulation

run 2000





# Deleting a fix by uid

unfix 469202603907013





# Deleting a fix by uid

unfix 569202603907009




variable E equal 0
variable Ex atom (0.003*(319.039+-320779.0*(x-0)+163840000.0*(x-0)^2+3188.37*(y-0)+-158115000.0*(y-0)^2+-0.483258*(z-0)+16206.1*(z-0)^2))*cos((2*3.141592653589793)*0.00725*step)
variable B equal 0
variable Ey atom (0.003*(-3.62944+3527.19*(x-0)+660075.0*(x-0)^2+320888.0*(y-0)+-1252000.0*(y-0)^2+1.91814*(z-0)+13573.5*(z-0)^2))*cos((2*3.141592653589793)*0.00725*step)
variable C equal 0
variable Ez atom (0.003*(0.00111849+-0.582074*(x-0)+-789.5*(x-0)^2+2.08274*(y-0)+1408.33*(y-0)^2+-57.5482*(z-0)+153.512*(z-0)^2))*cos((2*3.141592653589793)*0.00725*step)
fix 469202603907014 all efield v_Ex v_Ey v_Ez



timestep 1e-08


# Run simulation

run 1000




timestep 1e-09


# Run simulation

run 1000




variable coolx atom (9.269386030594033e-20+(2.703426035144626e-21*vx))*-0.5000000000000001
variable cooly atom (9.269386030594033e-20+2.703426035144626e-21*vy)*-0.5000000000000001
variable coolz atom (9.269386030594033e-20+2.703426035144626e-21*vz)*-0.7071067811865476
fix 569202603907010 1 addforce v_coolx v_cooly v_coolz



timestep 1e-08


# Run simulation

run 2000





# Deleting a fix by uid

unfix 469202603907014





# Deleting a fix by uid

unfix 569202603907010




variable E equal 0
variable Ex atom (0.003*(319.039+-320779.0*(x-0)+163840000.0*(x-0)^2+3188.37*(y-0)+-158115000.0*(y-0)^2+-0.483258*(z-0)+16206.1*(z-0)^2))*cos((2*3.141592653589793)*0.0073*step)
variable B equal 0
variable Ey atom (0.003*(-3.62944+3527.19*(x-0)+660075.0*(x-0)^2+320888.0*(y-0)+-1252000.0*(y-0)^2+1.91814*(z-0)+13573.5*(z-0)^2))*cos((2*3.141592653589793)*0.0073*step)
variable C equal 0
variable Ez atom (0.003*(0.00111849+-0.582074*(x-0)+-789.5*(x-0)^2+2.08274*(y-0)+1408.33*(y-0)^2+-57.5482*(z-0)+153.512*(z-0)^2))*cos((2*3.141592653589793)*0.0073*step)
fix 469202603907015 all efield v_Ex v_Ey v_Ez



timestep 1e-08


# Run simulation

run 1000




timestep 1e-09


# Run simulation

run 1000




variable coolx atom (9.269386030594033e-20+(2.703426035144626e-21*vx))*-0.5000000000000001
variable cooly atom (9.269386030594033e-20+2.703426035144626e-21*vy)*-0.5000000000000001
variable coolz atom (9.269386030594033e-20+2.703426035144626e-21*vz)*-0.7071067811865476
fix 569202603907011 1 addforce v_coolx v_cooly v_coolz



timestep 1e-08


# Run simulation

run 2000





# Deleting a fix by uid

unfix 469202603907015





# Deleting a fix by uid

unfix 569202603907011




variable E equal 0
variable Ex atom (0.003*(319.039+-320779.0*(x-0)+163840000.0*(x-0)^2+3188.37*(y-0)+-158115000.0*(y-0)^2+-0.483258*(z-0)+16206.1*(z-0)^2))*cos((2*3.141592653589793)*0.007500000000000001*step)
variable B equal 0
variable Ey atom (0.003*(-3.62944+3527.19*(x-0)+660075.0*(x-0)^2+320888.0*(y-0)+-1252000.0*(y-0)^2+1.91814*(z-0)+13573.5*(z-0)^2))*cos((2*3.141592653589793)*0.007500000000000001*step)
variable C equal 0
variable Ez atom (0.003*(0.00111849+-0.582074*(x-0)+-789.5*(x-0)^2+2.08274*(y-0)+1408.33*(y-0)^2+-57.5482*(z-0)+153.512*(z-0)^2))*cos((2*3.141592653589793)*0.007500000000000001*step)
fix 469202603907016 all efield v_Ex v_Ey v_Ez



timestep 1e-08


# Run simulation

run 1000




timestep 1e-09


# Run simulation

run 1000




variable coolx atom (9.269386030594033e-20+(2.703426035144626e-21*vx))*-0.5000000000000001
variable cooly atom (9.269386030594033e-20+2.703426035144626e-21*vy)*-0.5000000000000001
variable coolz atom (9.269386030594033e-20+2.703426035144626e-21*vz)*-0.7071067811865476
fix 569202603907012 1 addforce v_coolx v_cooly v_coolz



timestep 1e-08


# Run simulation

run 2000





# Deleting a fix by uid

unfix 469202603907016





# Deleting a fix by uid

unfix 569202603907012




variable E equal 0
variable Ex atom (0.003*(319.039+-320779.0*(x-0)+163840000.0*(x-0)^2+3188.37*(y-0)+-158115000.0*(y-0)^2+-0.483258*(z-0)+16206.1*(z-0)^2))*cos((2*3.141592653589793)*0.008*step)
variable B equal 0
variable Ey atom (0.003*(-3.62944+3527.19*(x-0)+660075.0*(x-0)^2+320888.0*(y-0)+-1252000.0*(y-0)^2+1.91814*(z-0)+13573.5*(z-0)^2))*cos((2*3.141592653589793)*0.008*step)
variable C equal 0
variable Ez atom (0.003*(0.00111849+-0.582074*(x-0)+-789.5*(x-0)^2+2.08274*(y-0)+1408.33*(y-0)^2+-57.5482*(z-0)+153.512*(z-0)^2))*cos((2*3.141592653589793)*0.008*step)
fix 469202603907017 all efield v_Ex v_Ey v_Ez



timestep 1e-08


# Run simulation

run 1000




timestep 1e-09


# Run simulation

run 1000




variable coolx atom (9.269386030594033e-20+(2.703426035144626e-21*vx))*-0.5000000000000001
variable cooly atom (9.269386030594033e-20+2.703426035144626e-21*vy)*-0.5000000000000001
variable coolz atom (9.269386030594033e-20+2.703426035144626e-21*vz)*-0.7071067811865476
fix 569202603907013 1 addforce v_coolx v_cooly v_coolz



timestep 1e-08


# Run simulation

run 2000





# Deleting a fix by uid

unfix 469202603907017





# Deleting a fix by uid

unfix 569202603907013




variable E equal 0
variable Ex atom (0.003*(319.039+-320779.0*(x-0)+163840000.0*(x-0)^2+3188.37*(y-0)+-158115000.0*(y-0)^2+-0.483258*(z-0)+16206.1*(z-0)^2))*cos((2*3.141592653589793)*0.009000000000000001*step)
variable B equal 0
variable Ey atom (0.003*(-3.62944+3527.19*(x-0)+660075.0*(x-0)^2+320888.0*(y-0)+-1252000.0*(y-0)^2+1.91814*(z-0)+13573.5*(z-0)^2))*cos((2*3.141592653589793)*0.009000000000000001*step)
variable C equal 0
variable Ez atom (0.003*(0.00111849+-0.582074*(x-0)+-789.5*(x-0)^2+2.08274*(y-0)+1408.33*(y-0)^2+-57.5482*(z-0)+153.512*(z-0)^2))*cos((2*3.141592653589793)*0.009000000000000001*step)
fix 469202603907018 all efield v_Ex v_Ey v_Ez



timestep 1e-08


# Run simulation

run 1000




timestep 1e-09


# Run simulation

run 1000




variable coolx atom (9.269386030594033e-20+(2.703426035144626e-21*vx))*-0.5000000000000001
variable cooly atom (9.269386030594033e-20+2.703426035144626e-21*vy)*-0.5000000000000001
variable coolz atom (9.269386030594033e-20+2.703426035144626e-21*vz)*-0.7071067811865476
fix 569202603907014 1 addforce v_coolx v_cooly v_coolz



timestep 1e-08


# Run simulation

run 2000





# Deleting a fix by uid

unfix 469202603907018





# Deleting a fix by uid

unfix 569202603907014


