##################################################################
# LAMMPS input file generated using pylion 0.5.3
# simulation name: test
#
# pylion is written and maintained by Dimitris Trypogeorgos
# and Elliot Bentine. Download it from
# https://bitbucket.org/dtrypogeorgos/pylion
#
# If you find it useful please cite <paper>.
##################################################################



units si
atom_style charge

# Creating simulation box...
boundary m m m
region simulationDomain block -0.001  0.001 -0.001 0.001 -0.001 0.001 units box
create_box 1 simulationDomain

# Configure neighbour list...
neighbor 1 nsq
neigh_modify once yes

# Configure pairwise interactions for long range Coulombics only...
pair_style coul/cut 10
pair_coeff * *

# Placing individual ions...


create_atoms 1 single 0.0001452752624643848 4.050630738302187e-05 0.0003815006684947116 units box

create_atoms 1 single 6.418081442220831e-05 0.0001196629331376347 -0.00045049855664621965 units box

create_atoms 1 single 6.227962925238104e-06 1.1743531995778372e-05 -3.5213504826659774e-05 units box

create_atoms 1 single -3.1169090516227493e-06 -1.990089205805495e-05 -3.760886443950327e-05 units box

create_atoms 1 single 5.783423883012592e-06 -1.3168736927325504e-05 5.186717965700347e-05 units box

create_atoms 1 single 0.0005337368724962596 -0.0006656426282517543 -8.833518951718425e-05 units box

create_atoms 1 single 0.00011765470552837718 -6.228523910399052e-05 0.00046022897178675293 units box

create_atoms 1 single 3.2437042390544316e-05 4.510657870933178e-05 0.0005555639958583298 units box

create_atoms 1 single -4.256397026242431e-05 -0.00011143815678548086 -5.5673119320014224e-05 units box

create_atoms 1 single 0.00030274650478819107 -0.00046134238305883644 0.00039539266787515546 units box

create_atoms 1 single 0.0003134884585737416 -0.00011758139250868465 9.770949571583589e-05 units box

create_atoms 1 single 0.0003905830663533224 0.00017539515876864543 -0.0001726123256245082 units box

create_atoms 1 single 0.00022517305874050688 -0.0006484793951450512 0.0003605160924087135 units box

create_atoms 1 single 0.0007438022824869301 -0.00043059907490290066 0.00018967567116749876 units box

create_atoms 1 single -7.643748038763257e-07 -1.6976902060645085e-06 6.778470680015488e-05 units box

create_atoms 1 single -8.170468790471986e-05 5.918588229824526e-05 -0.0008309836099340089 units box

create_atoms 1 single -5.9279767116361176e-05 2.719895839092858e-05 -4.100250139394379e-05 units box

create_atoms 1 single -0.000151801809381807 0.00012606384263952756 -0.000276299464070811 units box

create_atoms 1 single -1.4636874992091167e-05 -6.928032795054647e-05 3.690981849577016e-05 units box

create_atoms 1 single -4.191562820663574e-06 6.770999483628152e-07 9.196897317533795e-05 units box

create_atoms 1 single 5.87446582344619e-05 -3.911178588931289e-05 0.0007172489555606075 units box

create_atoms 1 single 0.0006761666752430234 -0.0005484666282804397 9.069143343190562e-06 units box

create_atoms 1 single 0.00015924138409163614 -0.00021372549505878187 -0.0004570437651566399 units box

create_atoms 1 single -0.0001038564029348527 -5.5692311654660054e-05 -0.00020003133434862272 units box

create_atoms 1 single 4.478110213738435e-05 0.0004369732004828349 -7.122396922802766e-05 units box

create_atoms 1 single -0.000376368915993367 -2.644005995938109e-05 0.0004051553732034992 units box

create_atoms 1 single -0.00023034079122535826 -9.502597931590611e-05 0.00019620963764274208 units box

create_atoms 1 single 0.00012436037166654632 -4.4436659054369624e-05 -3.0894720966255236e-05 units box

create_atoms 1 single -0.00012664512006604193 8.371898827916953e-05 -0.0008370573917749558 units box

create_atoms 1 single -0.0006082790575752658 -0.00021319870228723518 0.0003431760280375729 units box

create_atoms 1 single 0.00014699405686221652 0.00025807250928205157 2.0156484666942273e-05 units box

create_atoms 1 single 0.00012798763308081155 -0.00016846074552367697 0.00022774383577631673 units box

create_atoms 1 single 0.00021511442764290733 0.000259731600131962 0.000635747719542588 units box

create_atoms 1 single -0.00010279118149960122 0.00040333612822495064 -0.0006237014168189393 units box

create_atoms 1 single -0.0002919795423976271 -1.2314192626099354e-05 0.0006938348510213459 units box

create_atoms 1 single 0.0002559031067965299 5.497221154546997e-05 0.00023347184219599953 units box

create_atoms 1 single 0.00022548654961537803 0.00027730129780311494 0.000836260823854811 units box

create_atoms 1 single -0.0002592727766841528 0.00018226649482850238 0.00031240889851515396 units box

create_atoms 1 single 6.777372891032894e-05 4.689386480013153e-07 -0.0006770354340637845 units box

create_atoms 1 single 1.3456364026272164e-05 1.013112282713828e-05 -3.3158056668118075e-06 units box

create_atoms 1 single 1.112062891243947e-05 1.7441691373261604e-05 -2.703208961729537e-05 units box

create_atoms 1 single 0.0004317674538562971 4.9603272338579984e-05 -0.0007210730045274877 units box

create_atoms 1 single -0.0005844371651470142 -0.00012351566845813318 -0.00039714976964266824 units box

create_atoms 1 single 1.741779055269478e-05 -1.5024820462663875e-05 0.00013800689788187048 units box

create_atoms 1 single -0.00012050979665139433 0.0007950676039712258 -0.0001677875154471517 units box

create_atoms 1 single 7.5343753417436725e-06 0.0003512019479649032 0.0002306885538252648 units box

create_atoms 1 single -9.467270967360943e-05 -8.287015798265113e-07 0.0002108651325190841 units box

create_atoms 1 single 0.0002386683067341051 -0.00026000088596068766 -0.00034088917110256835 units box

create_atoms 1 single -0.0004214882835600636 -0.0007970422768771014 0.00018501828104304182 units box

create_atoms 1 single -0.000568617729571993 0.0003388248309742985 8.596526513911027e-05 units box


# Species...
mass 1 1.4944851e-26
set type 1 charge 1.6021764599999998e-19
group 1 type 1


timestep 1e-06

# Configuring additional output to flush buffer during simulation...
thermo 10000
thermo_style custom step cpu
thermo_modify flush yes

# Time integration...

group nonRigidBody union all

fix timeIntegrator nonRigidBody nve



dump 9071663476 all custom 10 /Users/michaelmitchell/qlicS/data/2024-06-28_16-05-05/positions.txt id x y z vx vy vz





# Pseudopotential approximation for Linear Paul trap... (fixID=9079581297)


# SHO

variable k_x9079581297		equal 1.773509e-12

variable k_y9079581297		equal 1.773509e-12

variable k_z9079581297		equal 1.548694e-13

variable fX9079581297 atom "-v_k_x9079581297 * x"

variable fY9079581297 atom "-v_k_y9079581297 * y"

variable fZ9079581297 atom "-v_k_z9079581297 * z"

variable E9079581297 atom "v_k_x9079581297 * x * x /         2 + v_k_y9079581297 * y * y / 2 + v_k_z9079581297 * z * z / 2"

fix 9079581297 all addforce         v_fX9079581297 v_fY9079581297 v_fZ9079581297 energy v_E9079581297




variable coolx atom (9.269386030594033e-20+(-2.703426035144626e-21*vx))*-0.5000000000000001
variable cooly atom (9.269386030594033e-20+-2.703426035144626e-21*vy)*-0.5000000000000001
variable coolz atom (9.269386030594033e-20+-2.703426035144626e-21*vz)*-0.7071067811865476
fix 569202603907002 1 addforce v_coolx v_cooly v_coolz



timestep 1e-08


# Run simulation

run 10000




variable E equal 0
variable Ex atom (0.003*(319.039+-320779.0*(x-0)+163840000.0*(x-0)^2+3188.37*(y-0)+-158115000.0*(y-0)^2+-0.483258*(z-0)+16206.1*(z-0)^2))*cos((2*3.141592653589793)*0.0007170000000000001*step)
variable B equal 0
variable Ey atom (0.003*(-3.62944+3527.19*(x-0)+660075.0*(x-0)^2+320888.0*(y-0)+-1252000.0*(y-0)^2+1.91814*(z-0)+13573.5*(z-0)^2))*cos((2*3.141592653589793)*0.0007170000000000001*step)
variable C equal 0
variable Ez atom (0.003*(0.00111849+-0.582074*(x-0)+-789.5*(x-0)^2+2.08274*(y-0)+1408.33*(y-0)^2+-57.5482*(z-0)+153.512*(z-0)^2))*cos((2*3.141592653589793)*0.0007170000000000001*step)
fix 569202603907006 all efield v_Ex v_Ey v_Ez



timestep 1e-09


# Run simulation

run 10000


