##################################################################
# LAMMPS input file generated using pylion 0.5.3
# simulation name: test
#
# pylion is written and maintained by Dimitris Trypogeorgos
# and Elliot Bentine. Download it from
# https://bitbucket.org/dtrypogeorgos/pylion
#
# If you find it useful please cite <paper>.
##################################################################



units si
atom_style charge

# Creating simulation box...
boundary m m m
region simulationDomain block -0.001  0.001 -0.001 0.001 -0.001 0.001 units box
create_box 1 simulationDomain

# Configure neighbour list...
neighbor 1 nsq
neigh_modify once yes

# Configure pairwise interactions for long range Coulombics only...
pair_style coul/cut 10
pair_coeff * *

# Placing individual ions...


create_atoms 1 single 0.00033997200905883524 -3.35358747721899e-05 0.0009164037662879094 units box

create_atoms 1 single 1.329093317770949e-05 2.7998747696162107e-05 -0.00010677562348252938 units box

create_atoms 1 single 0.000312091561772195 -8.729745647327494e-05 -9.123265575249843e-05 units box

create_atoms 1 single 0.0002626568763992668 -0.00018199754844227587 0.000343721175056826 units box

create_atoms 1 single -9.319099283952328e-05 -2.4490795606590918e-05 -0.00022794963025528603 units box

create_atoms 1 single -3.751737433290123e-05 0.00013202884682873687 0.00018091788253942463 units box

create_atoms 1 single -0.0002096986633486687 -0.000251223944986674 0.0003802326767834243 units box

create_atoms 1 single 0.0003362537087741183 -0.00029880574083989016 -0.00016245287507082073 units box

create_atoms 1 single 0.0001415314617471914 0.0003772799570626955 -7.086145826911853e-05 units box

create_atoms 1 single 3.0217559383272967e-05 -6.463407650838474e-05 0.0004298536710566896 units box


# Species...
mass 1 1.4944851e-26
set type 1 charge 1.6021764599999998e-19
group 1 type 1



# Configuring additional output to flush buffer during simulation...
thermo 10000
thermo_style custom step cpu
thermo_modify flush yes

# Time integration...

group nonRigidBody union all

fix timeIntegrator nonRigidBody nve



dump 9315593901 all custom 10 /Users/michaelmitchell/qlicS/data/2024-07-15_13-00-06/positions.txt id x y z vx vy vz





# Pseudopotential approximation for Linear Paul trap... (fixID=9315658936)


# SHO

variable k_x9315658936		equal 2.973789e-13

variable k_y9315658936		equal 2.973789e-13

variable k_z9315658936		equal 4.835556e-14

variable fX9315658936 atom "-v_k_x9315658936 * x"

variable fY9315658936 atom "-v_k_y9315658936 * y"

variable fZ9315658936 atom "-v_k_z9315658936 * z"

variable E9315658936 atom "v_k_x9315658936 * x * x /         2 + v_k_y9315658936 * y * y / 2 + v_k_z9315658936 * z * z / 2"

fix 9315658936 1 addforce         v_fX9315658936 v_fY9315658936 v_fZ9315658936 energy v_E9315658936




variable coolx atom (9.269386030594033e-20+(2.703426035144626e-21*vx))*-0.5000000000000001
variable cooly atom (9.269386030594033e-20+2.703426035144626e-21*vy)*-0.5000000000000001
variable coolz atom (9.269386030594033e-20+2.703426035144626e-21*vz)*-0.7071067811865476
fix 569202603907002 1 addforce v_coolx v_cooly v_coolz



timestep 1e-07


# Run simulation

run 50000





# Deleting a fix by uid

unfix 569202603907002




variable E equal 0
variable Ex atom (1*(1+0*(x-0)+0*(x-0)^2+0*(y-0)+0*(y-0)^2+0*(z-0)+0*(z-0)^2))*cos((2*3.141592653589793)*0.005*step)
variable B equal 0
variable Ey atom (1*(0+0*(x-0)+0*(x-0)^2+0.0*(y-0)+0.0*(y-0)^2+0*(z-0)+0*(z-0)^2))*cos((2*3.141592653589793)*0.005*step)
variable C equal 0
variable Ez atom (1*(0+0*(x-0)+0*(x-0)^2+0*(y-0)+0*(y-0)^2+0*(z-0)+0*(z-0)^2))*cos((2*3.141592653589793)*0.005*step)
fix 469202603907007 all efield v_Ex v_Ey v_Ez



timestep 1e-08


# Run simulation

run 10000





# Deleting a fix by uid

unfix 469202603907007




timestep 1e-07


# Run simulation

run 1000




variable coolx atom (9.269386030594033e-20+(2.703426035144626e-21*vx))*-0.5000000000000001
variable cooly atom (9.269386030594033e-20+2.703426035144626e-21*vy)*-0.5000000000000001
variable coolz atom (9.269386030594033e-20+2.703426035144626e-21*vz)*-0.7071067811865476
fix 569202603907003 1 addforce v_coolx v_cooly v_coolz



timestep 1e-07


# Run simulation

run 10000





# Deleting a fix by uid

unfix 569202603907003




variable E equal 0
variable Ex atom (1*(1+0*(x-0)+0*(x-0)^2+0*(y-0)+0*(y-0)^2+0*(z-0)+0*(z-0)^2))*cos((2*3.141592653589793)*0.006*step)
variable B equal 0
variable Ey atom (1*(0+0*(x-0)+0*(x-0)^2+0.0*(y-0)+0.0*(y-0)^2+0*(z-0)+0*(z-0)^2))*cos((2*3.141592653589793)*0.006*step)
variable C equal 0
variable Ez atom (1*(0+0*(x-0)+0*(x-0)^2+0*(y-0)+0*(y-0)^2+0*(z-0)+0*(z-0)^2))*cos((2*3.141592653589793)*0.006*step)
fix 469202603907008 all efield v_Ex v_Ey v_Ez



timestep 1e-08


# Run simulation

run 10000





# Deleting a fix by uid

unfix 469202603907008




timestep 1e-07


# Run simulation

run 1000




variable coolx atom (9.269386030594033e-20+(2.703426035144626e-21*vx))*-0.5000000000000001
variable cooly atom (9.269386030594033e-20+2.703426035144626e-21*vy)*-0.5000000000000001
variable coolz atom (9.269386030594033e-20+2.703426035144626e-21*vz)*-0.7071067811865476
fix 569202603907004 1 addforce v_coolx v_cooly v_coolz



timestep 1e-07


# Run simulation

run 10000





# Deleting a fix by uid

unfix 569202603907004




variable E equal 0
variable Ex atom (1*(1+0*(x-0)+0*(x-0)^2+0*(y-0)+0*(y-0)^2+0*(z-0)+0*(z-0)^2))*cos((2*3.141592653589793)*0.007*step)
variable B equal 0
variable Ey atom (1*(0+0*(x-0)+0*(x-0)^2+0.0*(y-0)+0.0*(y-0)^2+0*(z-0)+0*(z-0)^2))*cos((2*3.141592653589793)*0.007*step)
variable C equal 0
variable Ez atom (1*(0+0*(x-0)+0*(x-0)^2+0*(y-0)+0*(y-0)^2+0*(z-0)+0*(z-0)^2))*cos((2*3.141592653589793)*0.007*step)
fix 469202603907009 all efield v_Ex v_Ey v_Ez



timestep 1e-08


# Run simulation

run 10000





# Deleting a fix by uid

unfix 469202603907009




timestep 1e-07


# Run simulation

run 1000




variable coolx atom (9.269386030594033e-20+(2.703426035144626e-21*vx))*-0.5000000000000001
variable cooly atom (9.269386030594033e-20+2.703426035144626e-21*vy)*-0.5000000000000001
variable coolz atom (9.269386030594033e-20+2.703426035144626e-21*vz)*-0.7071067811865476
fix 569202603907005 1 addforce v_coolx v_cooly v_coolz



timestep 1e-07


# Run simulation

run 10000





# Deleting a fix by uid

unfix 569202603907005




variable E equal 0
variable Ex atom (1*(1+0*(x-0)+0*(x-0)^2+0*(y-0)+0*(y-0)^2+0*(z-0)+0*(z-0)^2))*cos((2*3.141592653589793)*0.00705*step)
variable B equal 0
variable Ey atom (1*(0+0*(x-0)+0*(x-0)^2+0.0*(y-0)+0.0*(y-0)^2+0*(z-0)+0*(z-0)^2))*cos((2*3.141592653589793)*0.00705*step)
variable C equal 0
variable Ez atom (1*(0+0*(x-0)+0*(x-0)^2+0*(y-0)+0*(y-0)^2+0*(z-0)+0*(z-0)^2))*cos((2*3.141592653589793)*0.00705*step)
fix 469202603907010 all efield v_Ex v_Ey v_Ez



timestep 1e-08


# Run simulation

run 10000





# Deleting a fix by uid

unfix 469202603907010




timestep 1e-07


# Run simulation

run 1000




variable coolx atom (9.269386030594033e-20+(2.703426035144626e-21*vx))*-0.5000000000000001
variable cooly atom (9.269386030594033e-20+2.703426035144626e-21*vy)*-0.5000000000000001
variable coolz atom (9.269386030594033e-20+2.703426035144626e-21*vz)*-0.7071067811865476
fix 569202603907006 1 addforce v_coolx v_cooly v_coolz



timestep 1e-07


# Run simulation

run 10000





# Deleting a fix by uid

unfix 569202603907006




variable E equal 0
variable Ex atom (1*(1+0*(x-0)+0*(x-0)^2+0*(y-0)+0*(y-0)^2+0*(z-0)+0*(z-0)^2))*cos((2*3.141592653589793)*0.0071*step)
variable B equal 0
variable Ey atom (1*(0+0*(x-0)+0*(x-0)^2+0.0*(y-0)+0.0*(y-0)^2+0*(z-0)+0*(z-0)^2))*cos((2*3.141592653589793)*0.0071*step)
variable C equal 0
variable Ez atom (1*(0+0*(x-0)+0*(x-0)^2+0*(y-0)+0*(y-0)^2+0*(z-0)+0*(z-0)^2))*cos((2*3.141592653589793)*0.0071*step)
fix 469202603907011 all efield v_Ex v_Ey v_Ez



timestep 1e-08


# Run simulation

run 10000





# Deleting a fix by uid

unfix 469202603907011




timestep 1e-07


# Run simulation

run 1000




variable coolx atom (9.269386030594033e-20+(2.703426035144626e-21*vx))*-0.5000000000000001
variable cooly atom (9.269386030594033e-20+2.703426035144626e-21*vy)*-0.5000000000000001
variable coolz atom (9.269386030594033e-20+2.703426035144626e-21*vz)*-0.7071067811865476
fix 569202603907007 1 addforce v_coolx v_cooly v_coolz



timestep 1e-07


# Run simulation

run 10000





# Deleting a fix by uid

unfix 569202603907007




variable E equal 0
variable Ex atom (1*(1+0*(x-0)+0*(x-0)^2+0*(y-0)+0*(y-0)^2+0*(z-0)+0*(z-0)^2))*cos((2*3.141592653589793)*0.0071400000000000005*step)
variable B equal 0
variable Ey atom (1*(0+0*(x-0)+0*(x-0)^2+0.0*(y-0)+0.0*(y-0)^2+0*(z-0)+0*(z-0)^2))*cos((2*3.141592653589793)*0.0071400000000000005*step)
variable C equal 0
variable Ez atom (1*(0+0*(x-0)+0*(x-0)^2+0*(y-0)+0*(y-0)^2+0*(z-0)+0*(z-0)^2))*cos((2*3.141592653589793)*0.0071400000000000005*step)
fix 469202603907012 all efield v_Ex v_Ey v_Ez



timestep 1e-08


# Run simulation

run 10000





# Deleting a fix by uid

unfix 469202603907012




timestep 1e-07


# Run simulation

run 1000




variable coolx atom (9.269386030594033e-20+(2.703426035144626e-21*vx))*-0.5000000000000001
variable cooly atom (9.269386030594033e-20+2.703426035144626e-21*vy)*-0.5000000000000001
variable coolz atom (9.269386030594033e-20+2.703426035144626e-21*vz)*-0.7071067811865476
fix 569202603907008 1 addforce v_coolx v_cooly v_coolz



timestep 1e-07


# Run simulation

run 10000





# Deleting a fix by uid

unfix 569202603907008




variable E equal 0
variable Ex atom (1*(1+0*(x-0)+0*(x-0)^2+0*(y-0)+0*(y-0)^2+0*(z-0)+0*(z-0)^2))*cos((2*3.141592653589793)*0.0071600000000000006*step)
variable B equal 0
variable Ey atom (1*(0+0*(x-0)+0*(x-0)^2+0.0*(y-0)+0.0*(y-0)^2+0*(z-0)+0*(z-0)^2))*cos((2*3.141592653589793)*0.0071600000000000006*step)
variable C equal 0
variable Ez atom (1*(0+0*(x-0)+0*(x-0)^2+0*(y-0)+0*(y-0)^2+0*(z-0)+0*(z-0)^2))*cos((2*3.141592653589793)*0.0071600000000000006*step)
fix 469202603907013 all efield v_Ex v_Ey v_Ez



timestep 1e-08


# Run simulation

run 10000





# Deleting a fix by uid

unfix 469202603907013




timestep 1e-07


# Run simulation

run 1000




variable coolx atom (9.269386030594033e-20+(2.703426035144626e-21*vx))*-0.5000000000000001
variable cooly atom (9.269386030594033e-20+2.703426035144626e-21*vy)*-0.5000000000000001
variable coolz atom (9.269386030594033e-20+2.703426035144626e-21*vz)*-0.7071067811865476
fix 569202603907009 1 addforce v_coolx v_cooly v_coolz



timestep 1e-07


# Run simulation

run 10000





# Deleting a fix by uid

unfix 569202603907009




variable E equal 0
variable Ex atom (1*(1+0*(x-0)+0*(x-0)^2+0*(y-0)+0*(y-0)^2+0*(z-0)+0*(z-0)^2))*cos((2*3.141592653589793)*0.00718*step)
variable B equal 0
variable Ey atom (1*(0+0*(x-0)+0*(x-0)^2+0.0*(y-0)+0.0*(y-0)^2+0*(z-0)+0*(z-0)^2))*cos((2*3.141592653589793)*0.00718*step)
variable C equal 0
variable Ez atom (1*(0+0*(x-0)+0*(x-0)^2+0*(y-0)+0*(y-0)^2+0*(z-0)+0*(z-0)^2))*cos((2*3.141592653589793)*0.00718*step)
fix 469202603907014 all efield v_Ex v_Ey v_Ez



timestep 1e-08


# Run simulation

run 10000





# Deleting a fix by uid

unfix 469202603907014




timestep 1e-07


# Run simulation

run 1000




variable coolx atom (9.269386030594033e-20+(2.703426035144626e-21*vx))*-0.5000000000000001
variable cooly atom (9.269386030594033e-20+2.703426035144626e-21*vy)*-0.5000000000000001
variable coolz atom (9.269386030594033e-20+2.703426035144626e-21*vz)*-0.7071067811865476
fix 569202603907010 1 addforce v_coolx v_cooly v_coolz



timestep 1e-07


# Run simulation

run 10000





# Deleting a fix by uid

unfix 569202603907010




variable E equal 0
variable Ex atom (1*(1+0*(x-0)+0*(x-0)^2+0*(y-0)+0*(y-0)^2+0*(z-0)+0*(z-0)^2))*cos((2*3.141592653589793)*0.0072*step)
variable B equal 0
variable Ey atom (1*(0+0*(x-0)+0*(x-0)^2+0.0*(y-0)+0.0*(y-0)^2+0*(z-0)+0*(z-0)^2))*cos((2*3.141592653589793)*0.0072*step)
variable C equal 0
variable Ez atom (1*(0+0*(x-0)+0*(x-0)^2+0*(y-0)+0*(y-0)^2+0*(z-0)+0*(z-0)^2))*cos((2*3.141592653589793)*0.0072*step)
fix 469202603907015 all efield v_Ex v_Ey v_Ez



timestep 1e-08


# Run simulation

run 10000





# Deleting a fix by uid

unfix 469202603907015




timestep 1e-07


# Run simulation

run 1000




variable coolx atom (9.269386030594033e-20+(2.703426035144626e-21*vx))*-0.5000000000000001
variable cooly atom (9.269386030594033e-20+2.703426035144626e-21*vy)*-0.5000000000000001
variable coolz atom (9.269386030594033e-20+2.703426035144626e-21*vz)*-0.7071067811865476
fix 569202603907011 1 addforce v_coolx v_cooly v_coolz



timestep 1e-07


# Run simulation

run 10000





# Deleting a fix by uid

unfix 569202603907011




variable E equal 0
variable Ex atom (1*(1+0*(x-0)+0*(x-0)^2+0*(y-0)+0*(y-0)^2+0*(z-0)+0*(z-0)^2))*cos((2*3.141592653589793)*0.007500000000000001*step)
variable B equal 0
variable Ey atom (1*(0+0*(x-0)+0*(x-0)^2+0.0*(y-0)+0.0*(y-0)^2+0*(z-0)+0*(z-0)^2))*cos((2*3.141592653589793)*0.007500000000000001*step)
variable C equal 0
variable Ez atom (1*(0+0*(x-0)+0*(x-0)^2+0*(y-0)+0*(y-0)^2+0*(z-0)+0*(z-0)^2))*cos((2*3.141592653589793)*0.007500000000000001*step)
fix 469202603907016 all efield v_Ex v_Ey v_Ez



timestep 1e-08


# Run simulation

run 10000





# Deleting a fix by uid

unfix 469202603907016




timestep 1e-07


# Run simulation

run 1000




variable coolx atom (9.269386030594033e-20+(2.703426035144626e-21*vx))*-0.5000000000000001
variable cooly atom (9.269386030594033e-20+2.703426035144626e-21*vy)*-0.5000000000000001
variable coolz atom (9.269386030594033e-20+2.703426035144626e-21*vz)*-0.7071067811865476
fix 569202603907012 1 addforce v_coolx v_cooly v_coolz



timestep 1e-07


# Run simulation

run 10000





# Deleting a fix by uid

unfix 569202603907012




variable E equal 0
variable Ex atom (1*(1+0*(x-0)+0*(x-0)^2+0*(y-0)+0*(y-0)^2+0*(z-0)+0*(z-0)^2))*cos((2*3.141592653589793)*0.0085*step)
variable B equal 0
variable Ey atom (1*(0+0*(x-0)+0*(x-0)^2+0.0*(y-0)+0.0*(y-0)^2+0*(z-0)+0*(z-0)^2))*cos((2*3.141592653589793)*0.0085*step)
variable C equal 0
variable Ez atom (1*(0+0*(x-0)+0*(x-0)^2+0*(y-0)+0*(y-0)^2+0*(z-0)+0*(z-0)^2))*cos((2*3.141592653589793)*0.0085*step)
fix 469202603907017 all efield v_Ex v_Ey v_Ez



timestep 1e-08


# Run simulation

run 10000





# Deleting a fix by uid

unfix 469202603907017




timestep 1e-07


# Run simulation

run 1000




variable coolx atom (9.269386030594033e-20+(2.703426035144626e-21*vx))*-0.5000000000000001
variable cooly atom (9.269386030594033e-20+2.703426035144626e-21*vy)*-0.5000000000000001
variable coolz atom (9.269386030594033e-20+2.703426035144626e-21*vz)*-0.7071067811865476
fix 569202603907013 1 addforce v_coolx v_cooly v_coolz



timestep 1e-07


# Run simulation

run 10000





# Deleting a fix by uid

unfix 569202603907013


