##################################################################
# LAMMPS input file generated using pylion 0.5.3
# simulation name: test
#
# pylion is written and maintained by Dimitris Trypogeorgos
# and Elliot Bentine. Download it from
# https://bitbucket.org/dtrypogeorgos/pylion
#
# If you find it useful please cite <paper>.
##################################################################



units si
atom_style charge

# Creating simulation box...
boundary m m m
region simulationDomain block -0.001  0.001 -0.001 0.001 -0.001 0.001 units box
create_box 1 simulationDomain

# Configure neighbour list...
neighbor 1 nsq
neigh_modify once yes

# Configure pairwise interactions for long range Coulombics only...
pair_style coul/cut 10
pair_coeff * *

# Placing individual ions...


create_atoms 1 single 0.0004017392142733965 0.00030053811183011037 -1.0853326426922918e-05 units box

create_atoms 1 single -0.0005033799064098949 -0.0002127112765965876 -0.0005228189663126423 units box

create_atoms 1 single 0.00023311917313611683 -0.00029916551703473404 0.00028620268888014 units box

create_atoms 1 single -6.604087203819388e-05 -0.00028128209279197955 -0.0007612646305207113 units box

create_atoms 1 single 0.00017352730158063672 0.0006571038219859189 3.10380096482709e-05 units box

create_atoms 1 single 5.083535320380083e-05 6.250312574802981e-05 0.000680687011525828 units box

create_atoms 1 single 0.00043691191150655747 -0.00022653269381968133 0.0003813557287506421 units box

create_atoms 1 single 7.5588866610666415e-06 -1.3743750175161613e-05 -0.0005447888200458439 units box

create_atoms 1 single -0.0004277260511940249 -6.407719787976133e-05 0.0006043672519583948 units box

create_atoms 1 single 0.0003473865609710424 -0.0003151671349339034 0.0008729534405242549 units box

create_atoms 1 single 2.0585511087121748e-05 -1.1446607129508142e-05 -0.00024404837768797312 units box

create_atoms 1 single 0.00014870817216245484 0.00036543884890810483 -0.0005782464139350769 units box

create_atoms 1 single -0.00010552596790196561 -0.00046497324771997825 0.0002419461678784005 units box

create_atoms 1 single -9.504793174719471e-05 -2.475524061919716e-05 -0.0006657021201214687 units box

create_atoms 1 single 0.0005473544344963581 -0.0004356767658907049 0.0004579255219835668 units box

create_atoms 1 single 8.166328693923783e-05 -5.6623758758865095e-05 5.7372933330275417e-05 units box

create_atoms 1 single -0.00011991693485173023 0.0005797010036601497 0.00010860679851161704 units box

create_atoms 1 single 8.399217576857051e-05 -6.67982989919199e-06 0.00041546836150160166 units box

create_atoms 1 single -5.2535249287293876e-05 0.0001394556650396402 0.0004489231874129987 units box

create_atoms 1 single 2.604208825557114e-05 -0.0003622643536372765 1.019557825601844e-05 units box

create_atoms 1 single -0.00022949296283954052 0.0006176015947770676 -0.0005456497863875136 units box

create_atoms 1 single -0.000218440899913284 0.00022992776452646627 0.0006229012527391028 units box

create_atoms 1 single -5.481634551203076e-05 -0.0001958693903723289 -0.0006780736211582585 units box

create_atoms 1 single 9.890717012205887e-06 -3.271262261254494e-05 8.645908927036033e-05 units box

create_atoms 1 single 0.00015004268711387827 -0.0004732429139500848 7.841007166318032e-05 units box

create_atoms 1 single 0.0007332198506422057 -7.803056127192233e-05 0.0004708102885981108 units box

create_atoms 1 single -0.00011742075903549719 0.00045496060469561874 0.0004126461449321764 units box

create_atoms 1 single -0.00013811470608136682 3.590578332840372e-05 -0.0003122135807100787 units box

create_atoms 1 single -5.303766225067621e-06 1.0687489635052524e-05 4.05126850780667e-05 units box

create_atoms 1 single -0.00022368815375276932 0.0003085123095342093 -0.0004670161200281717 units box

create_atoms 1 single -1.0987775001513499e-05 -1.1887917258855256e-05 0.00010888616731255502 units box

create_atoms 1 single -9.04889186850586e-06 1.0250424196006965e-05 1.0587218485442278e-05 units box

create_atoms 1 single 5.5507004039108616e-05 0.00016707517509563334 3.6690461760255496e-05 units box

create_atoms 1 single 0.00013889804075942297 0.00014635918525628656 -7.532689192654979e-05 units box

create_atoms 1 single -0.00043352948430340976 0.00017540613860427887 -0.00016549203120924796 units box

create_atoms 1 single -0.00022066504006748537 -0.0007725039708335361 -0.0005518642833692567 units box

create_atoms 1 single -2.2521127567813795e-05 -4.7592470916400744e-05 -5.708083777032554e-05 units box

create_atoms 1 single -8.955375078448767e-07 -2.445340008969034e-07 -4.073291199700037e-05 units box

create_atoms 1 single -0.0004986340948058591 -0.00021897202878702084 -0.0005044732256964066 units box

create_atoms 1 single -0.00022693787715826635 0.00013691994661090473 0.00012129444933908075 units box

create_atoms 1 single 0.00015198877788833646 0.00021602893875434092 -0.0006132168777889391 units box

create_atoms 1 single 0.0003377352286765227 0.00030493443714790493 8.56594354675759e-06 units box

create_atoms 1 single 0.0003802295420447183 -0.0001148331670341522 -0.00022950877825206635 units box

create_atoms 1 single 0.00013506751392719372 7.629339711245718e-07 0.00011148244885075886 units box

create_atoms 1 single -0.00011930854888645063 0.00022802927149986483 0.00013654001379713747 units box

create_atoms 1 single 2.2510907368527383e-05 -2.3981740875835354e-05 -0.00036390835514750366 units box

create_atoms 1 single -0.00025110298245682256 9.609296327231974e-05 0.0009133666860032874 units box

create_atoms 1 single -0.00014765553995181466 4.7344185857874934e-05 -1.0753669150453045e-06 units box

create_atoms 1 single -0.00035347260513708434 0.00033728108612686956 0.0008420170337998566 units box

create_atoms 1 single -5.447591834711323e-05 0.0004079170328897387 0.0005563546726454111 units box


# Species...
mass 1 1.4944851e-26
set type 1 charge 1.6021764599999998e-19
group 1 type 1


timestep 1e-06

# Configuring additional output to flush buffer during simulation...
thermo 10000
thermo_style custom step cpu
thermo_modify flush yes

# Time integration...

group nonRigidBody union all

fix timeIntegrator nonRigidBody nve



dump 9050522794 all custom 10 /Users/michaelmitchell/qlicS/data/2024-06-28_15-56-59/positions.txt id x y z vx vy vz





# Pseudopotential approximation for Linear Paul trap... (fixID=9058704085)


# SHO

variable k_x9058704085		equal 1.773509e-12

variable k_y9058704085		equal 1.773509e-12

variable k_z9058704085		equal 1.548694e-13

variable fX9058704085 atom "-v_k_x9058704085 * x"

variable fY9058704085 atom "-v_k_y9058704085 * y"

variable fZ9058704085 atom "-v_k_z9058704085 * z"

variable E9058704085 atom "v_k_x9058704085 * x * x /         2 + v_k_y9058704085 * y * y / 2 + v_k_z9058704085 * z * z / 2"

fix 9058704085 all addforce         v_fX9058704085 v_fY9058704085 v_fZ9058704085 energy v_E9058704085




variable coolx atom (9.269386030594033e-20+(-2.703426035144626e-21*vx))*-0.5000000000000001
variable cooly atom (9.269386030594033e-20+-2.703426035144626e-21*vy)*-0.5000000000000001
variable coolz atom (9.269386030594033e-20+-2.703426035144626e-21*vz)*-0.7071067811865476
fix 569202603907002 1 addforce v_coolx v_cooly v_coolz



timestep 1e-08


# Run simulation

run 10000




variable E equal 0
variable Ex atom (0.003*(319.039+-320779.0*(x-0)+163840000.0*(x-0)^2+3188.37*(y-0)+-158115000.0*(y-0)^2+-0.483258*(z-0)+16206.1*(z-0)^2))*cos((2*3.141592653589793)*0.0007170000000000001*step)
variable B equal 0
variable Ey atom (0.003*(-3.62944+3527.19*(x-0)+660075.0*(x-0)^2+320888.0*(y-0)+-1252000.0*(y-0)^2+1.91814*(z-0)+13573.5*(z-0)^2))*cos((2*3.141592653589793)*0.0007170000000000001*step)
variable C equal 0
variable Ez atom (0.003*(0.00111849+-0.582074*(x-0)+-789.5*(x-0)^2+2.08274*(y-0)+1408.33*(y-0)^2+-57.5482*(z-0)+153.512*(z-0)^2))*cos((2*3.141592653589793)*0.0007170000000000001*step)
fix 569202603907006 all efield v_Ex v_Ey v_Ez



timestep 1e-09


# Run simulation

run 10000


