##################################################################
# LAMMPS input file generated using pylion 0.5.3
# simulation name: test
#
# pylion is written and maintained by Dimitris Trypogeorgos
# and Elliot Bentine. Download it from
# https://bitbucket.org/dtrypogeorgos/pylion
#
# If you find it useful please cite <paper>.
##################################################################



units si
atom_style charge

# Creating simulation box...
boundary m m m
region simulationDomain block -0.001  0.001 -0.001 0.001 -0.001 0.001 units box
create_box 1 simulationDomain

# Configure neighbour list...
neighbor 1 nsq
neigh_modify once yes

# Configure pairwise interactions for long range Coulombics only...
pair_style coul/cut 10
pair_coeff * *

# Placing individual ions...


create_atoms 1 single -9.330660760163376e-05 -0.00039465885582159663 0.0004723243632689302 units box

create_atoms 1 single -0.00016166733131300125 9.439814668256026e-05 0.0002566068755440221 units box

create_atoms 1 single 0.0003807589355291012 0.0004259775002461574 0.0007593096420302414 units box

create_atoms 1 single 0.00016400172139668988 0.0001581652552650993 -0.00014946260994301848 units box

create_atoms 1 single -0.0001320990046445216 -0.0004516101797442351 0.00013646322136485838 units box

create_atoms 1 single -0.00010506549723015784 -0.0004731015269782323 -0.0002992067986865701 units box

create_atoms 1 single -0.0002539929418700306 -0.0002965247472414147 0.0008977557190655608 units box

create_atoms 1 single -0.0006678631612743609 -2.3963696617057845e-05 -0.00022332268955726955 units box

create_atoms 1 single -0.00013954644082818976 -0.00025152855718859864 -0.00042944335788680163 units box

create_atoms 1 single -1.6246966200522374e-05 -5.5370312516539624e-05 0.00020794812948295746 units box

create_atoms 1 single 1.0452285475003412e-06 -0.00017575318574457126 0.00013596843724375263 units box

create_atoms 1 single -0.000442158266991073 -0.00014094537581095323 -0.0007506941703041517 units box

create_atoms 1 single -0.0002862274913725692 0.00014821177082631059 -0.0007427473472298434 units box

create_atoms 1 single -0.00032134427552357763 0.00017118588348212063 0.00033917765076198545 units box

create_atoms 1 single -7.778742273520537e-06 1.819395920119696e-05 -0.0008526593580991988 units box

create_atoms 1 single -2.5589361186312418e-05 -1.3661604154629138e-05 -1.2725830549283212e-05 units box

create_atoms 1 single -0.00041901115677920843 0.00043357623240739706 2.3592998436641927e-05 units box

create_atoms 1 single -5.486086765837359e-09 -1.910635420897332e-08 0.0007304934266731603 units box

create_atoms 1 single -4.37899834295451e-05 0.00029921076622890026 -9.334239055575054e-05 units box

create_atoms 1 single -0.0006734508913133503 0.0004451496282817505 -0.00028716942046519135 units box

create_atoms 1 single 0.0004715476172399766 0.00033159425115037605 -0.0007917142048224876 units box

create_atoms 1 single 0.000514676615321613 1.8430028766853294e-05 0.000409219982263724 units box

create_atoms 1 single -0.00048093919462051425 0.00034868079675184053 0.000269140601627201 units box

create_atoms 1 single 0.00021803782006897196 0.00015491092688052827 0.0009057833473658491 units box

create_atoms 1 single 8.71387649811365e-05 -0.00021815099747544896 0.00015179879578688187 units box

create_atoms 1 single -0.00012509200391242956 -6.751331070012782e-05 0.00010347290103374817 units box

create_atoms 1 single 0.0003271003938272818 0.0006986466033723511 0.0006068919710175161 units box

create_atoms 1 single -0.00026224889835492043 2.4695089499015834e-05 -0.00016272383609619971 units box

create_atoms 1 single -7.98864434682968e-06 1.8611839094081864e-05 0.00018060591019665605 units box

create_atoms 1 single 0.0005658187155294011 -0.00043489292740045156 0.0003868356483546568 units box

create_atoms 1 single -5.65107455540478e-05 -0.00014529015748568973 0.00016898495388213862 units box

create_atoms 1 single 0.00019702616902766122 -6.362272523495909e-05 5.314054197787591e-05 units box

create_atoms 1 single 4.3460159612780635e-05 -4.905134927775573e-05 -0.0006492924817028746 units box

create_atoms 1 single 0.00012497242179206934 7.816012716769568e-05 9.282114039360991e-06 units box

create_atoms 1 single 3.152401748708193e-05 -7.989943037345503e-05 -0.00017216377639374665 units box

create_atoms 1 single -0.0004172499517678532 -0.0007709383982777879 0.00023876018636461127 units box

create_atoms 1 single 1.6098400334223966e-06 -2.2083654073818837e-05 -5.881420336464185e-06 units box

create_atoms 1 single 3.334319632921517e-05 -8.013834653789342e-06 0.0006875525474626834 units box

create_atoms 1 single 8.813304916462931e-05 9.364123239520321e-06 8.639189650460236e-05 units box

create_atoms 1 single -1.8253156806559632e-05 1.416097564168476e-05 0.0001412343238400741 units box

create_atoms 1 single 0.0003837053330757507 0.0004940268982921985 0.0002857330369004061 units box

create_atoms 1 single -0.0002452566763775906 0.0006904630584386525 -4.4225699231301004e-05 units box

create_atoms 1 single 0.00048804369032282767 0.0005431788654402744 -0.00022050009570799393 units box

create_atoms 1 single 6.0574301685218216e-05 -0.0007401457071492297 8.980485741844338e-05 units box

create_atoms 1 single -0.0007147530550858369 0.00022555296124664504 0.0003811094567168392 units box

create_atoms 1 single -8.366551423966148e-06 -1.916865886335509e-05 -0.0008288800507958127 units box

create_atoms 1 single -0.0002891252968734968 0.00027550287718672886 -0.00012857619688823847 units box

create_atoms 1 single -7.983043033372471e-05 6.891602309840106e-05 -6.40500603197582e-05 units box

create_atoms 1 single -2.5998902840646953e-06 0.00019790862171999407 0.00036465556468252 units box

create_atoms 1 single 0.00041424957027645876 0.0005751331846729772 0.0003186699381175055 units box


# Species...
mass 1 1.4944851e-26
set type 1 charge 1.6021764599999998e-19
group 1 type 1


timestep 1e-06

# Configuring additional output to flush buffer during simulation...
thermo 10000
thermo_style custom step cpu
thermo_modify flush yes

# Time integration...

group nonRigidBody union all

fix timeIntegrator nonRigidBody nve



dump 9204121285 all custom 10 /Users/michaelmitchell/qlicS/data/2024-06-28_22-41-13/positions.txt id x y z vx vy vz





# Pseudopotential approximation for Linear Paul trap... (fixID=9212051167)


# SHO

variable k_x9212051167		equal 1.773509e-12

variable k_y9212051167		equal 1.773509e-12

variable k_z9212051167		equal 1.548694e-13

variable fX9212051167 atom "-v_k_x9212051167 * x"

variable fY9212051167 atom "-v_k_y9212051167 * y"

variable fZ9212051167 atom "-v_k_z9212051167 * z"

variable E9212051167 atom "v_k_x9212051167 * x * x /         2 + v_k_y9212051167 * y * y / 2 + v_k_z9212051167 * z * z / 2"

fix 9212051167 all addforce         v_fX9212051167 v_fY9212051167 v_fZ9212051167 energy v_E9212051167




variable coolx atom (9.269386030594033e-20+(-2.703426035144626e-21*vx))*-0.5000000000000001
variable cooly atom (9.269386030594033e-20+-2.703426035144626e-21*vy)*-0.5000000000000001
variable coolz atom (9.269386030594033e-20+-2.703426035144626e-21*vz)*-0.7071067811865476
fix 569202603907002 1 addforce v_coolx v_cooly v_coolz



timestep 1e-08


# Run simulation

run 10000




variable E equal 0
variable Ex atom (0.003*(319.039+-320779.0*(x-0)+163840000.0*(x-0)^2+3188.37*(y-0)+-158115000.0*(y-0)^2+-0.483258*(z-0)+16206.1*(z-0)^2))*cos((2*3.141592653589793)*0.0007170000000000001*step)
variable B equal 0
variable Ey atom (0.003*(-3.62944+3527.19*(x-0)+660075.0*(x-0)^2+320888.0*(y-0)+-1252000.0*(y-0)^2+1.91814*(z-0)+13573.5*(z-0)^2))*cos((2*3.141592653589793)*0.0007170000000000001*step)
variable C equal 0
variable Ez atom (0.003*(0.00111849+-0.582074*(x-0)+-789.5*(x-0)^2+2.08274*(y-0)+1408.33*(y-0)^2+-57.5482*(z-0)+153.512*(z-0)^2))*cos((2*3.141592653589793)*0.0007170000000000001*step)
fix 569202603907006 all efield v_Ex v_Ey v_Ez



timestep 1e-09


# Run simulation

run 10000


