##################################################################
# LAMMPS input file generated using pylion 0.5.3
# simulation name: test
#
# pylion is written and maintained by Dimitris Trypogeorgos
# and Elliot Bentine. Download it from
# https://bitbucket.org/dtrypogeorgos/pylion
#
# If you find it useful please cite <paper>.
##################################################################



units si
atom_style charge

# Creating simulation box...
boundary m m m
region simulationDomain block -0.001  0.001 -0.001 0.001 -0.001 0.001 units box
create_box 1 simulationDomain

# Configure neighbour list...
neighbor 1 nsq
neigh_modify once yes

# Configure pairwise interactions for long range Coulombics only...
pair_style coul/cut 10
pair_coeff * *

# Placing individual ions...


create_atoms 1 single -0.00017745401601624712 0.00033658265502387757 0.0007983955283339984 units box

create_atoms 1 single 0.00035495484196737184 -0.00023761308515523238 0.00046936492035762036 units box

create_atoms 1 single -5.655891567970022e-05 -7.755240389526332e-06 5.7891569336014116e-05 units box

create_atoms 1 single 0.00013170938284666898 -7.71798373147815e-05 -0.0007405573687978031 units box

create_atoms 1 single -1.4512633452223473e-05 7.114500641655724e-05 -1.5246863339617723e-05 units box

create_atoms 1 single 0.00027663422043716537 0.00013256327842658792 0.00046091459560213856 units box

create_atoms 1 single 5.183055595495932e-05 -8.562392345066418e-05 -0.0007145497087738391 units box

create_atoms 1 single -2.516011002823893e-05 -2.6586038294870028e-05 -4.361159515324574e-05 units box

create_atoms 1 single 0.00030620696357021293 0.00015788230937342922 -0.00011328315970098348 units box

create_atoms 1 single 6.561079610030313e-05 0.00017920111133794652 1.2839659490013567e-05 units box

create_atoms 1 single 2.6029199728448882e-05 3.0556232668241055e-05 4.9700053175984105e-05 units box

create_atoms 1 single -0.0001954006684629315 -3.1541356259654584e-05 -0.00020794175676205496 units box

create_atoms 1 single 9.021012684806468e-06 1.902639510819159e-05 0.00015723474235178334 units box

create_atoms 1 single -3.375579781360126e-05 2.546493905222715e-05 -2.0372486183080653e-05 units box

create_atoms 1 single 0.0005999351558681747 -6.93895481319555e-05 -0.0004697446647358211 units box

create_atoms 1 single 6.60020426787581e-05 -0.0003734285930327054 -0.00020525365853893318 units box

create_atoms 1 single 0.0001251267418936854 0.0004699927515110329 0.00012990382651502922 units box

create_atoms 1 single 5.762290649184212e-05 -0.0001448849466570948 -0.00030903941085883837 units box

create_atoms 1 single 0.00014736730725490137 -0.0003117336273370494 0.00012173309541079326 units box

create_atoms 1 single 5.742910128469609e-05 -0.00021224260578031514 -0.00019849916013057605 units box

create_atoms 1 single -5.15253201566758e-06 1.337042279323132e-06 -1.8035961641860966e-05 units box

create_atoms 1 single 0.00048496350439914353 0.0005195478774684947 0.0003172179265894977 units box

create_atoms 1 single -0.00020308435440022393 0.0007843695271867006 0.00013754303169374751 units box

create_atoms 1 single -1.6145765266316372e-05 -4.821783352487093e-05 2.5195304346286598e-05 units box

create_atoms 1 single -0.0005223580517090413 2.7928336809480145e-05 0.00014027451431326458 units box

create_atoms 1 single -7.474296957860325e-05 -0.0003477943131701991 0.0006653166523990548 units box

create_atoms 1 single 0.0005404508200636749 0.0001733026643084402 -0.0004024629630660468 units box

create_atoms 1 single -5.4429198648003154e-05 0.0003337705535369642 -4.522475016734496e-05 units box

create_atoms 1 single -0.00028704720285456433 -5.429648955178084e-05 -0.0003103177280027682 units box

create_atoms 1 single -0.0005702554134534629 -0.00021056724670569436 0.00031324149998102774 units box

create_atoms 1 single 2.5151690151290694e-05 7.535466477499799e-06 -5.5643657565498514e-05 units box

create_atoms 1 single 5.9990859987513285e-06 8.689258833194303e-06 0.0003402182813539297 units box

create_atoms 1 single -2.7573328642824927e-05 -4.288919999486486e-05 0.00023902242197045665 units box

create_atoms 1 single 0.00013424564038181356 -0.000273974230857694 -0.00025866471260501447 units box

create_atoms 1 single -0.0002932339869425108 0.00017266630138573647 0.00020004674240873218 units box

create_atoms 1 single 0.0005173493704054099 0.0002476035955788035 0.0003842443732468096 units box

create_atoms 1 single 4.559801779981041e-05 -1.8715885402376907e-05 -8.09855884854887e-06 units box

create_atoms 1 single -0.000425262245080719 0.00033845004008156254 0.0006625085199854017 units box

create_atoms 1 single 5.220869816521887e-05 4.467337457011124e-05 -8.803411321652305e-05 units box

create_atoms 1 single -0.00015702688423529474 -0.00044493352396269577 -0.000870849166287104 units box

create_atoms 1 single -0.0002818080673466472 -7.224004376960278e-05 0.00011785878011288877 units box

create_atoms 1 single -0.00010560500948747698 -5.092470135456746e-05 0.0006539605723856961 units box

create_atoms 1 single -6.30301685212012e-05 -3.139615578172094e-05 0.0006773624369599167 units box

create_atoms 1 single -1.7101912988131065e-05 1.881509087476431e-05 -2.352244687963512e-05 units box

create_atoms 1 single -2.136899010191201e-05 1.6657697165607219e-06 1.4120457418739796e-05 units box

create_atoms 1 single -6.980619231722615e-05 -0.0003737734538286802 7.357128710650914e-05 units box

create_atoms 1 single 0.000460167334572837 0.0005015927024464044 -0.00045718271093403326 units box

create_atoms 1 single 0.00014695455204937746 6.798497285951185e-06 -6.610612713993394e-06 units box

create_atoms 1 single -0.0002654634036803253 1.6000810879270684e-05 -0.00018860506905288516 units box

create_atoms 1 single 0.0002432174374601912 0.00025388903120517476 -0.000361883130514109 units box


# Species...
mass 1 1.4944851e-26
set type 1 charge 1.6021764599999998e-19
group 1 type 1


timestep 1e-06

# Configuring additional output to flush buffer during simulation...
thermo 10000
thermo_style custom step cpu
thermo_modify flush yes

# Time integration...

group nonRigidBody union all

fix timeIntegrator nonRigidBody nve



dump 8910615414 all custom 10 /Users/michaelmitchell/qlicS/data/2024-06-28_15-56-39/positions.txt id x y z vx vy vz





# Pseudopotential approximation for Linear Paul trap... (fixID=8918445219)


# SHO

variable k_x8918445219		equal 1.773509e-12

variable k_y8918445219		equal 1.773509e-12

variable k_z8918445219		equal 1.548694e-13

variable fX8918445219 atom "-v_k_x8918445219 * x"

variable fY8918445219 atom "-v_k_y8918445219 * y"

variable fZ8918445219 atom "-v_k_z8918445219 * z"

variable E8918445219 atom "v_k_x8918445219 * x * x /         2 + v_k_y8918445219 * y * y / 2 + v_k_z8918445219 * z * z / 2"

fix 8918445219 all addforce         v_fX8918445219 v_fY8918445219 v_fZ8918445219 energy v_E8918445219




variable coolx atom (9.269386030594033e-20+(-2.703426035144626e-21*vx))*-0.5000000000000001
variable cooly atom (9.269386030594033e-20+-2.703426035144626e-21*vy)*-0.5000000000000001
variable coolz atom (9.269386030594033e-20+-2.703426035144626e-21*vz)*-0.7071067811865476
fix 569202603907002 1 addforce v_coolx v_cooly v_coolz



timestep 1e-08


# Run simulation

run 10000




variable E equal 0
variable Ex atom (0.003*(319.039+-320779.0*(x-0)+163840000.0*(x-0)^2+3188.37*(y-0)+-158115000.0*(y-0)^2+-0.483258*(z-0)+16206.1*(z-0)^2))*cos((2*3.141592653589793)*0.0007170000000000001*step)
variable B equal 0
variable Ey atom (0.003*(-3.62944+3527.19*(x-0)+660075.0*(x-0)^2+320888.0*(y-0)+-1252000.0*(y-0)^2+1.91814*(z-0)+13573.5*(z-0)^2))*cos((2*3.141592653589793)*0.0007170000000000001*step)
variable C equal 0
variable Ez atom (0.003*(0.00111849+-0.582074*(x-0)+-789.5*(x-0)^2+2.08274*(y-0)+1408.33*(y-0)^2+-57.5482*(z-0)+153.512*(z-0)^2))*cos((2*3.141592653589793)*0.0007170000000000001*step)
fix 569202603907006 all efield v_Ex v_Ey v_Ez



timestep 1e-09


# Run simulation

run 10000


