##################################################################
# LAMMPS input file generated using pylion 0.5.3
# simulation name: test
#
# pylion is written and maintained by Dimitris Trypogeorgos
# and Elliot Bentine. Download it from
# https://bitbucket.org/dtrypogeorgos/pylion
#
# If you find it useful please cite <paper>.
##################################################################



units si
atom_style charge

# Creating simulation box...
boundary m m m
region simulationDomain block -0.001  0.001 -0.001 0.001 -0.001 0.001 units box
create_box 2 simulationDomain

# Configure neighbour list...
neighbor 1 nsq
neigh_modify once yes

# Configure pairwise interactions for long range Coulombics only...
pair_style coul/cut 10
pair_coeff * *

# Placing individual ions...


create_atoms 1 single -5.059331787872669e-05 0.00036064438767808763 7.881265773313673e-05 units box

create_atoms 1 single 4.176230814853417e-05 8.363881814862563e-05 4.449713146026386e-06 units box

create_atoms 1 single 0.00024958022218862867 6.0170376339714846e-05 0.0009518261522586719 units box

create_atoms 1 single -0.00014180125224188395 -0.00048046679102517204 -0.0002921532008006307 units box

create_atoms 1 single 2.0762439708025482e-05 -6.805899456263188e-05 -0.0005075198553531844 units box

create_atoms 1 single -4.1876239036991925e-05 -9.724044169870451e-06 0.0007778484941729408 units box

create_atoms 1 single -0.00012610335734138732 0.00011302457609368016 0.0009489438855713149 units box

create_atoms 1 single -0.00011663502709875737 -2.0204980386944785e-05 -3.2642013863884e-08 units box

create_atoms 1 single -3.7500715305967375e-05 0.00016401819118036328 -9.316787224723731e-05 units box

create_atoms 1 single -0.00018254064987510409 -0.0009063229057196365 0.00034828381642440986 units box

create_atoms 1 single 0.0002963901383026706 9.077973011497813e-05 9.840808855491966e-05 units box

create_atoms 1 single -7.274287174711163e-06 3.0972450521127876e-06 -0.0007752355373605665 units box

create_atoms 1 single 2.816771352517488e-05 -0.00017825776447642587 -0.00023338804236500406 units box

create_atoms 1 single 0.00035663192309028297 -2.3691742295493675e-05 0.00011455639398864376 units box

create_atoms 1 single -0.000537821653997427 -0.0008165949636330709 0.00010555141510144866 units box

create_atoms 1 single -0.0002966741266656623 0.0004336478847619404 0.00018050619446243266 units box

create_atoms 1 single 0.0007931213774647484 -0.00022906538672047157 0.0005356847465657854 units box

create_atoms 1 single -7.172492306770743e-05 -0.00010371732924731955 -0.0008960231300100832 units box

create_atoms 1 single 0.00023733756750948893 -4.5012311230758385e-05 -0.00022504526255331858 units box

create_atoms 1 single -0.0002660039269553985 5.958842241226714e-05 0.0002716143655503029 units box


# Species...
mass 1 1.4944851e-26
set type 1 charge 1.6021764599999998e-19
group 1 type 1



create_atoms 2 single -3.973266152780973e-08 1.837115071588849e-08 -2.0331476039396632e-05 units box

create_atoms 2 single -0.0003311341061506366 0.00010063087402888207 -0.00016911829557551939 units box

create_atoms 2 single -0.00028458085392471446 -0.00043253045967915654 -0.0008177822744039632 units box

create_atoms 2 single -0.0001504728778622575 -0.00014044154705511393 0.0007652088669603505 units box

create_atoms 2 single 0.0005030739697421877 -5.660571932147751e-05 -0.0004439857732228646 units box

create_atoms 2 single -0.0005245562710397188 0.00013517218345508283 -0.0003689089338592518 units box

create_atoms 2 single 0.00013362498492688386 -0.00046462606067400547 -0.0006113305183885914 units box

create_atoms 2 single -2.366939174567797e-06 0.00018094988478020515 6.746074297700188e-05 units box

create_atoms 2 single 9.25010543796178e-05 0.0008631784537299308 -0.0002469374287061169 units box

create_atoms 2 single 0.0004114208059164413 0.0005334630117707846 0.00033892959271653787 units box


# Species...
mass 2 5.3137248e-26
set type 2 charge 1.6021764599999998e-19
group 2 type 2


timestep 1e-06

# Configuring additional output to flush buffer during simulation...
thermo 10000
thermo_style custom step cpu
thermo_modify flush yes

# Time integration...

group nonRigidBody union all

fix timeIntegrator nonRigidBody nve



dump 9215267775 all custom 10 /Users/michaelmitchell/qlicS/data/2024-07-08_09-32-17/positions.txt id x y z vx vy vz





# Pseudopotential approximation for Linear Paul trap... (fixID=9216968814)


# SHO

variable k_x9216968814		equal 1.773509e-12

variable k_y9216968814		equal 1.773509e-12

variable k_z9216968814		equal 1.548694e-13

variable fX9216968814 atom "-v_k_x9216968814 * x"

variable fY9216968814 atom "-v_k_y9216968814 * y"

variable fZ9216968814 atom "-v_k_z9216968814 * z"

variable E9216968814 atom "v_k_x9216968814 * x * x /         2 + v_k_y9216968814 * y * y / 2 + v_k_z9216968814 * z * z / 2"

fix 9216968814 all addforce         v_fX9216968814 v_fY9216968814 v_fZ9216968814 energy v_E9216968814




variable coolx atom (9.269386030594033e-20+(-2.703426035144626e-21*vx))*-0.5000000000000001
variable cooly atom (9.269386030594033e-20+-2.703426035144626e-21*vy)*-0.5000000000000001
variable coolz atom (9.269386030594033e-20+-2.703426035144626e-21*vz)*-0.7071067811865476
fix 569202603907002 1 addforce v_coolx v_cooly v_coolz



timestep 1e-08


# Run simulation

run 20000


