##################################################################
# LAMMPS input file generated using pylion 0.5.3
# simulation name: test
#
# pylion is written and maintained by Dimitris Trypogeorgos
# and Elliot Bentine. Download it from
# https://bitbucket.org/dtrypogeorgos/pylion
#
# If you find it useful please cite <paper>.
##################################################################



units si
atom_style charge

# Creating simulation box...
boundary m m m
region simulationDomain block -0.001  0.001 -0.001 0.001 -0.001 0.001 units box
create_box 1 simulationDomain

# Configure neighbour list...
neighbor 1 nsq
neigh_modify once yes

# Configure pairwise interactions for long range Coulombics only...
pair_style coul/cut 10
pair_coeff * *

# Placing individual ions...


create_atoms 1 single -2.0760714590317585e-06 -1.4311258438302304e-05 -1.0711989576774146e-05 units box

create_atoms 1 single -9.91116802360508e-05 -6.543097065579251e-05 -4.351033050360274e-05 units box

create_atoms 1 single 0.00020293586566025516 -6.225388673643968e-06 0.0006437141015676286 units box

create_atoms 1 single 0.00017171397317368241 0.0003574172793809863 -0.0002704887750704356 units box

create_atoms 1 single 2.9847715794892875e-05 -0.0002893018705310115 -0.0007337806507081468 units box

create_atoms 1 single 9.012927117642213e-08 1.4846176156517999e-05 0.0003277178211474654 units box

create_atoms 1 single 0.00025388585370138115 -0.0008593811822149626 -0.00026461508173845975 units box

create_atoms 1 single -0.00019340300253401342 -0.0001552720468208751 -0.00018225771531643663 units box

create_atoms 1 single -0.00017473679694106963 0.00015264890138780854 1.313666620709853e-05 units box

create_atoms 1 single 8.674192673706071e-05 4.9913751896024536e-05 -9.216497349520298e-06 units box

create_atoms 1 single -9.432562431177755e-08 1.6396540084244888e-07 7.151764779884826e-07 units box

create_atoms 1 single -5.08726294240415e-06 -9.377553171856688e-06 0.00026580359624592574 units box

create_atoms 1 single 0.00035191627942240397 0.0005320116821789019 0.00042968646728840337 units box

create_atoms 1 single 0.00026943600660142905 2.496851314320081e-06 0.0004039559929690932 units box

create_atoms 1 single 4.568591574422093e-05 -1.4636105734311486e-06 0.00010234894491400898 units box

create_atoms 1 single 4.699596363553622e-05 2.8180532302055926e-05 -1.3972665154131485e-05 units box

create_atoms 1 single 0.0001329013373296979 7.681064745747836e-05 0.0005417282086467489 units box

create_atoms 1 single 0.00018276613503742325 -0.00045845746169596147 -0.0008153685981305936 units box

create_atoms 1 single -0.00029731173820947236 -0.0002549266613596007 -0.0003225479478662482 units box

create_atoms 1 single -0.0001237432044271376 -0.0003196982038049237 0.0002145274639309633 units box

create_atoms 1 single -0.0009167008755379405 -2.674220543444377e-07 0.000273749964480169 units box

create_atoms 1 single 1.4914953424194546e-06 6.009979936117921e-06 0.0006931163801518855 units box

create_atoms 1 single 4.8299685202979906e-05 4.857106006623106e-05 0.00037321746612462454 units box

create_atoms 1 single 0.00013437655706311378 -0.0009163663871911733 1.927191700711129e-05 units box

create_atoms 1 single 0.0002313313879372907 0.0003826635765438428 -0.00023714226087167618 units box

create_atoms 1 single -0.0004617492803452478 -0.00013708413188683792 2.718754478316071e-05 units box

create_atoms 1 single -0.00013198832933623164 0.00011652219957319968 0.00032250363307138484 units box

create_atoms 1 single 0.0005035269156836732 -0.00037265096949795515 -0.0006309941141345364 units box

create_atoms 1 single -4.6350840499218796e-05 3.984586911794789e-05 -1.4684772727457413e-05 units box

create_atoms 1 single 4.618109727816543e-05 0.0003802638329748497 -0.00011360830618420027 units box

create_atoms 1 single 0.00010829371750864469 -9.20510417581452e-05 -0.0002615860748168824 units box

create_atoms 1 single -0.00034455459905971986 -0.000515527277170937 0.0004043074821731545 units box

create_atoms 1 single -9.13967153080507e-05 -0.00032753146460657884 -0.0006840365885671334 units box

create_atoms 1 single 0.0004891264880116179 -0.0006054269826888957 -9.030169263094646e-06 units box

create_atoms 1 single 0.00012182999133398786 -0.00012701378186629145 -0.00029924964490232693 units box

create_atoms 1 single 0.00012155613691095458 0.0006053968722114155 -0.00026004943518629205 units box

create_atoms 1 single -1.147425339933009e-05 7.711884130605388e-06 -1.1497499071415357e-05 units box

create_atoms 1 single 0.00024419559490557635 4.700921310387108e-05 -0.0005597901278982142 units box

create_atoms 1 single 0.00012030750084859461 8.864664988022675e-05 0.00010754881770416811 units box

create_atoms 1 single 0.0004957731503975836 -5.54591903261262e-05 -2.919634618360179e-05 units box

create_atoms 1 single 0.00022098417831128913 0.0006696836726600005 -0.0001456524353545841 units box

create_atoms 1 single -5.1217848447568585e-05 -4.3922696172042727e-05 -6.899266630726753e-05 units box

create_atoms 1 single -0.00020132240946323473 6.775661326298425e-07 0.00083190165057737 units box

create_atoms 1 single -0.0002541266661561608 0.00020905498684500393 8.536400448528848e-06 units box

create_atoms 1 single 0.00046671836087154323 0.00012932681378383432 -0.00037938687795373164 units box

create_atoms 1 single -0.0003702592421268356 -0.00029452632274688486 2.596481810424028e-05 units box

create_atoms 1 single -0.0007338950930549822 0.00042249070146120447 -0.0004081421564957615 units box

create_atoms 1 single -9.83570391571653e-06 -0.000223761422764383 0.0009590853117962826 units box

create_atoms 1 single 2.6373922902704603e-05 0.00010034972500233024 -2.0569374141585632e-05 units box

create_atoms 1 single -0.000508820206149369 0.0004823836332112894 0.00010935631362438264 units box


# Species...
mass 1 1.4944851e-26
set type 1 charge 1.6021764599999998e-19
group 1 type 1


timestep 1e-06

# Configuring additional output to flush buffer during simulation...
thermo 10000
thermo_style custom step cpu
thermo_modify flush yes

# Time integration...

group nonRigidBody union all

fix timeIntegrator nonRigidBody nve



dump 9390475350 all custom 10 /Users/michaelmitchell/qlicS/data/2024-06-28_16-16-25/positions.txt id x y z vx vy vz





# Pseudopotential approximation for Linear Paul trap... (fixID=9431933834)


# SHO

variable k_x9431933834		equal 1.773509e-12

variable k_y9431933834		equal 1.773509e-12

variable k_z9431933834		equal 1.548694e-13

variable fX9431933834 atom "-v_k_x9431933834 * x"

variable fY9431933834 atom "-v_k_y9431933834 * y"

variable fZ9431933834 atom "-v_k_z9431933834 * z"

variable E9431933834 atom "v_k_x9431933834 * x * x /         2 + v_k_y9431933834 * y * y / 2 + v_k_z9431933834 * z * z / 2"

fix 9431933834 all addforce         v_fX9431933834 v_fY9431933834 v_fZ9431933834 energy v_E9431933834




variable coolx atom (9.269386030594033e-20+(-2.703426035144626e-21*vx))*-0.5000000000000001
variable cooly atom (9.269386030594033e-20+-2.703426035144626e-21*vy)*-0.5000000000000001
variable coolz atom (9.269386030594033e-20+-2.703426035144626e-21*vz)*-0.7071067811865476
fix 569202603907002 1 addforce v_coolx v_cooly v_coolz



timestep 1e-08


# Run simulation

run 10000




variable E equal 0
variable Ex atom (0.003*(319.039+-320779.0*(x-0)+163840000.0*(x-0)^2+3188.37*(y-0)+-158115000.0*(y-0)^2+-0.483258*(z-0)+16206.1*(z-0)^2))*cos((2*3.141592653589793)*0.0007170000000000001*step)
variable B equal 0
variable Ey atom (0.003*(-3.62944+3527.19*(x-0)+660075.0*(x-0)^2+320888.0*(y-0)+-1252000.0*(y-0)^2+1.91814*(z-0)+13573.5*(z-0)^2))*cos((2*3.141592653589793)*0.0007170000000000001*step)
variable C equal 0
variable Ez atom (0.003*(0.00111849+-0.582074*(x-0)+-789.5*(x-0)^2+2.08274*(y-0)+1408.33*(y-0)^2+-57.5482*(z-0)+153.512*(z-0)^2))*cos((2*3.141592653589793)*0.0007170000000000001*step)
fix 569202603907006 all efield v_Ex v_Ey v_Ez



timestep 1e-09


# Run simulation

run 10000


