##################################################################
# LAMMPS input file generated using pylion 0.5.3
# simulation name: test
#
# pylion is written and maintained by Dimitris Trypogeorgos
# and Elliot Bentine. Download it from
# https://bitbucket.org/dtrypogeorgos/pylion
#
# If you find it useful please cite <paper>.
##################################################################



units si
atom_style charge

# Creating simulation box...
boundary m m m
region simulationDomain block -0.001  0.001 -0.001 0.001 -0.001 0.001 units box
create_box 1 simulationDomain

# Configure neighbour list...
neighbor 1 nsq
neigh_modify once yes

# Configure pairwise interactions for long range Coulombics only...
pair_style coul/cut 10
pair_coeff * *

# Placing individual ions...


create_atoms 1 single -4.128594439379445e-05 -5.9308980631673576e-05 7.9311645355906e-05 units box

create_atoms 1 single 0.0002422312054740111 -7.933487291115132e-05 0.000468905583443342 units box

create_atoms 1 single -5.433256120146986e-05 -0.00015723321418051225 0.0006358127640735603 units box

create_atoms 1 single 1.7147818577864438e-05 -5.933810699871092e-05 -4.625413567369127e-06 units box

create_atoms 1 single -0.0004600269828821304 0.00016279083615858132 0.0008378454561408863 units box

create_atoms 1 single -0.0002795854602153783 -0.0002962511808757891 0.0008665541748879148 units box

create_atoms 1 single 0.000264051892209394 -0.00027352080699053193 -0.0004697584642931746 units box

create_atoms 1 single 8.848391341019819e-06 3.56425712197036e-06 6.59479935198609e-05 units box

create_atoms 1 single -4.879276812205003e-06 7.702617551128163e-05 -5.0001210350737904e-05 units box

create_atoms 1 single 7.917086095040169e-05 3.82241637067463e-05 -7.358918552480128e-05 units box

create_atoms 1 single 4.617982543111563e-05 -0.0002034583766856731 0.0009490310124876927 units box

create_atoms 1 single -7.738331698247216e-06 2.2147616794253492e-05 1.4963028473147128e-05 units box

create_atoms 1 single -5.682530627347543e-05 0.00044784810096878144 5.7593278792006234e-05 units box

create_atoms 1 single -0.00018998574819855922 0.0005830855463845625 1.510709285250884e-05 units box

create_atoms 1 single -0.0003377088160467456 -0.00010398421705215996 0.00012400295829579825 units box

create_atoms 1 single -3.495974310459457e-05 -0.00010476577757690939 0.00019582367210797764 units box

create_atoms 1 single -0.00010415503230604619 -0.000563312039595907 5.611274272793804e-05 units box

create_atoms 1 single 7.370764324133631e-06 -0.0004867686587974381 -0.0007931152137390312 units box

create_atoms 1 single -8.173003428434023e-06 6.81481693454739e-05 3.158534551734297e-05 units box

create_atoms 1 single -3.52592248593995e-05 -0.00011008053692376679 0.0004898813869262367 units box

create_atoms 1 single 2.9331798727281767e-05 7.733611277053884e-05 -5.232999377740686e-05 units box

create_atoms 1 single -8.790368118811776e-05 -0.00042953021305232645 -5.371579655273511e-05 units box

create_atoms 1 single -9.723251498957207e-06 3.1675839541905485e-06 0.0007993480424604093 units box

create_atoms 1 single -4.606837571702301e-06 -0.000760816505693671 9.694658818858854e-05 units box

create_atoms 1 single 0.00031333162115130875 2.9562500895070636e-05 0.0006972867803118179 units box

create_atoms 1 single 2.0080715227279113e-05 6.808910427218058e-05 0.000153367651768975 units box

create_atoms 1 single -0.0007273597622571796 -0.000166424753638787 0.0006455856132444152 units box

create_atoms 1 single -0.00014848554917502922 0.0006302236225582551 -0.00022780953621754095 units box

create_atoms 1 single -0.0003223344294186064 -0.0002816952538019815 0.0007714744424468509 units box

create_atoms 1 single 0.0002860436790872192 4.2276087129461916e-05 -6.495714526741279e-05 units box

create_atoms 1 single -5.29322583827151e-05 0.00032545844343065817 -2.9211650823911357e-05 units box

create_atoms 1 single -0.00012375974555427213 -7.895901957036569e-05 -0.00018013381445292504 units box

create_atoms 1 single 4.357728409945695e-05 -5.7692164193199214e-05 -0.00019702671533033774 units box

create_atoms 1 single 6.952724308773198e-05 7.957198238237303e-06 -4.7018863549155234e-05 units box

create_atoms 1 single -5.1559856632644796e-05 -0.00020985608776234778 0.00036883416232392867 units box

create_atoms 1 single 2.5753917292101972e-05 0.00018299045021889473 -3.5458192424513916e-05 units box

create_atoms 1 single 0.0006195873562780602 -0.00043341646911160167 -0.000617805099652297 units box

create_atoms 1 single -3.105504179104978e-05 -0.00012783223602112783 -9.688711569313996e-05 units box

create_atoms 1 single -1.3071875485789494e-06 -9.915936619969938e-06 -3.203882687617205e-05 units box

create_atoms 1 single -0.00016622592068580222 0.0004343114375834365 1.5887417849056803e-05 units box

create_atoms 1 single -6.099582044783405e-05 -0.0001746914667840736 0.000889158717637693 units box

create_atoms 1 single -0.00013165437501750027 0.0001364603056158556 -0.0001655315956280531 units box

create_atoms 1 single -5.988982546196939e-05 0.00013332159293582456 -0.0005991250354531033 units box

create_atoms 1 single 0.00020538076889599984 -0.0002311614773009969 -3.763510989244504e-05 units box

create_atoms 1 single 4.4138542224965424e-05 -0.00010219628896819719 -2.5425242510403612e-05 units box

create_atoms 1 single 1.769791217052592e-05 6.731157862403282e-06 -1.3581415478586327e-05 units box

create_atoms 1 single 0.0005973412633244114 0.000108270212414362 -0.0003981556015333195 units box

create_atoms 1 single -0.00017229068887983508 0.00018388871254652233 -9.272461735067003e-05 units box

create_atoms 1 single 9.088714844501567e-06 6.672643686285676e-05 0.0007759229386256748 units box

create_atoms 1 single 0.00010284728229566048 -4.8472678968728516e-05 0.0007985316820236372 units box


# Species...
mass 1 1.4944851e-26
set type 1 charge 1.6021764599999998e-19
group 1 type 1


timestep 1e-06

# Configuring additional output to flush buffer during simulation...
thermo 10000
thermo_style custom step cpu
thermo_modify flush yes

# Time integration...

group nonRigidBody union all

fix timeIntegrator nonRigidBody nve



dump 8721824159 all custom 10 /Users/michaelmitchell/qlicS/data/2024-06-28_23-04-49/positions.txt id x y z vx vy vz





# Pseudopotential approximation for Linear Paul trap... (fixID=8674442900)


# SHO

variable k_x8674442900		equal 1.773509e-12

variable k_y8674442900		equal 1.773509e-12

variable k_z8674442900		equal 1.548694e-13

variable fX8674442900 atom "-v_k_x8674442900 * x"

variable fY8674442900 atom "-v_k_y8674442900 * y"

variable fZ8674442900 atom "-v_k_z8674442900 * z"

variable E8674442900 atom "v_k_x8674442900 * x * x /         2 + v_k_y8674442900 * y * y / 2 + v_k_z8674442900 * z * z / 2"

fix 8674442900 all addforce         v_fX8674442900 v_fY8674442900 v_fZ8674442900 energy v_E8674442900




variable coolx atom (9.269386030594033e-20+(-2.703426035144626e-21*vx))*-0.5000000000000001
variable cooly atom (9.269386030594033e-20+-2.703426035144626e-21*vy)*-0.5000000000000001
variable coolz atom (9.269386030594033e-20+-2.703426035144626e-21*vz)*-0.7071067811865476
fix 569202603907002 1 addforce v_coolx v_cooly v_coolz



timestep 1e-08


# Run simulation

run 10000




variable E equal 0
variable Ex atom (0.003*(319.039+-320779.0*(x-0)+163840000.0*(x-0)^2+3188.37*(y-0)+-158115000.0*(y-0)^2+-0.483258*(z-0)+16206.1*(z-0)^2))*cos((2*3.141592653589793)*0.0007170000000000001*step)
variable B equal 0
variable Ey atom (0.003*(-3.62944+3527.19*(x-0)+660075.0*(x-0)^2+320888.0*(y-0)+-1252000.0*(y-0)^2+1.91814*(z-0)+13573.5*(z-0)^2))*cos((2*3.141592653589793)*0.0007170000000000001*step)
variable C equal 0
variable Ez atom (0.003*(0.00111849+-0.582074*(x-0)+-789.5*(x-0)^2+2.08274*(y-0)+1408.33*(y-0)^2+-57.5482*(z-0)+153.512*(z-0)^2))*cos((2*3.141592653589793)*0.0007170000000000001*step)
fix 569202603907006 all efield v_Ex v_Ey v_Ez



timestep 1e-09


# Run simulation

run 10000


