##################################################################
# LAMMPS input file generated using pylion 0.5.3
# simulation name: test
#
# pylion is written and maintained by Dimitris Trypogeorgos
# and Elliot Bentine. Download it from
# https://bitbucket.org/dtrypogeorgos/pylion
#
# If you find it useful please cite <paper>.
##################################################################



units si
atom_style charge

# Creating simulation box...
boundary m m m
region simulationDomain block -0.001  0.001 -0.001 0.001 -0.001 0.001 units box
create_box 1 simulationDomain

# Configure neighbour list...
neighbor 1 nsq
neigh_modify once yes

# Configure pairwise interactions for long range Coulombics only...
pair_style coul/cut 10
pair_coeff * *

# Placing individual ions...


create_atoms 1 single -0.0004391311702071842 0.0003605425002319466 0.0004543243405211987 units box

create_atoms 1 single 0.00033520341109876544 0.00019355876769952866 -0.0005874797861626092 units box

create_atoms 1 single 0.00027750884987652445 -1.5262834387503836e-05 0.000905117036759952 units box

create_atoms 1 single 2.049529876358169e-05 -0.000240899465669639 -6.607570950822619e-05 units box

create_atoms 1 single -1.8541508201817244e-06 9.613200108433366e-06 -0.0008370982504957299 units box

create_atoms 1 single -8.693260218891809e-05 0.0005750462794692191 -0.0004012477260457668 units box

create_atoms 1 single 2.098614114966173e-05 4.961662127822765e-06 0.0007867649805118902 units box

create_atoms 1 single 8.336893798766926e-05 -0.00018380515883834487 -0.0005334008050875703 units box

create_atoms 1 single 0.00015426904354306112 -0.00010354178224989346 0.0005864932359980654 units box

create_atoms 1 single -4.222057288676277e-05 -0.00011279329000711381 -3.332777157007499e-05 units box

create_atoms 1 single -0.00018736982962726332 -3.165231935446606e-05 -0.00014391614197880147 units box

create_atoms 1 single 6.293416927824879e-06 -0.00012108957762108945 9.037111338456848e-05 units box

create_atoms 1 single 0.00014465671775750207 -7.122768113137385e-05 -0.0005478354121615402 units box

create_atoms 1 single -0.00020783501544624033 -1.2995521287793407e-05 0.0004732625872044992 units box

create_atoms 1 single 0.0002250036308521845 9.25193009363757e-05 0.00028911542888393656 units box

create_atoms 1 single 9.108042313129669e-05 -0.00012217889739670864 0.0003507771459544253 units box

create_atoms 1 single -7.908342735049827e-05 -0.00010947681596374726 0.0009840178659422181 units box

create_atoms 1 single 7.356889618363315e-05 -2.754663737808339e-06 2.3327420664795155e-05 units box

create_atoms 1 single -0.0004294499320797736 0.00032803412450596543 0.0001923516988874254 units box

create_atoms 1 single 3.6892568523329094e-05 4.342108436411206e-05 -0.00018265406349016837 units box

create_atoms 1 single -0.00032945469857089576 -9.423121154712198e-05 -6.619139474144136e-05 units box

create_atoms 1 single 9.29112424750574e-05 -0.0006027999038849583 -0.0004932916068434076 units box

create_atoms 1 single -0.00032637525616470865 -0.00022277132429777732 0.00024052747329140085 units box

create_atoms 1 single 0.0008179827746475516 -0.00035184290299260224 0.0001835437783856211 units box

create_atoms 1 single 2.851051435471877e-05 6.933462238637795e-05 0.0008708821201840675 units box

create_atoms 1 single 0.00017813121693068272 0.0005015249973505882 0.000174625353163803 units box

create_atoms 1 single -0.0005335509268120051 0.00043724624611910813 0.00029323758210868576 units box

create_atoms 1 single -0.00022286401708275868 0.0003931680132738735 -0.0002975035881219593 units box

create_atoms 1 single 4.478233405200724e-05 -5.106721602202245e-05 -0.0005023180198979477 units box

create_atoms 1 single 0.00019400174066736613 0.0002363519533275386 -0.0001677996340158114 units box

create_atoms 1 single -0.00023098445814439243 -8.553210687522225e-05 0.000692280723100806 units box

create_atoms 1 single -0.00024109537460610556 -0.0002539172927392043 -0.0002880459374540939 units box

create_atoms 1 single 0.00024056334164815845 0.0006510154246491753 0.0003477078759391618 units box

create_atoms 1 single 7.879318351609131e-05 -2.7311955295988247e-06 -0.0007394166898309112 units box

create_atoms 1 single -4.287034885104759e-06 -2.738620891529754e-06 0.0005598914952159704 units box

create_atoms 1 single 0.0005964981310421221 -5.477237069153122e-05 -0.0006845802641922569 units box

create_atoms 1 single -0.00010811151689953967 0.00014546920747794573 8.90214984511662e-06 units box

create_atoms 1 single 0.00014891857118545202 -1.3838648681104912e-05 0.0009413426656289313 units box

create_atoms 1 single 0.0003403375740905492 -0.0005440628240766483 -0.00034290269521517673 units box

create_atoms 1 single 0.00020893094870829312 -0.0007986444950657581 0.00029317948897232993 units box

create_atoms 1 single -0.00021917945626049972 0.00021214069926688253 -2.4197841767280383e-05 units box

create_atoms 1 single 6.276084361970826e-05 8.01832657537189e-05 0.0008713174687268154 units box

create_atoms 1 single 0.0003247946202504626 -0.00012260065759105913 -0.00012757826521984472 units box

create_atoms 1 single -0.0002452051114501181 -0.00011493546873999346 -1.9474391610914683e-05 units box

create_atoms 1 single 0.00014628336745655404 0.0001448257305788108 0.00038482863143188327 units box

create_atoms 1 single -4.498110042190809e-05 0.00013972151173911046 -0.0001389818747286103 units box

create_atoms 1 single -0.0006342119781566685 0.0004600298028781599 -0.00031383578527666167 units box

create_atoms 1 single 0.00016617381339493779 5.09055046714588e-05 -0.0007662027165115532 units box

create_atoms 1 single 0.00035922766583792646 0.0006704496795000525 4.85524936948122e-05 units box

create_atoms 1 single 4.6897979854592276e-05 -3.514839305045545e-05 -1.4823658070865877e-05 units box


# Species...
mass 1 1.4944851e-26
set type 1 charge 1.6021764599999998e-19
group 1 type 1


timestep 1e-06

# Configuring additional output to flush buffer during simulation...
thermo 10000
thermo_style custom step cpu
thermo_modify flush yes

# Time integration...

group nonRigidBody union all

fix timeIntegrator nonRigidBody nve



dump 8982273756 all custom 10 /Users/michaelmitchell/qlicS/data/2024-06-28_23-29-47/positions.txt id x y z vx vy vz





# Pseudopotential approximation for Linear Paul trap... (fixID=8990195300)


# SHO

variable k_x8990195300		equal 1.773509e-12

variable k_y8990195300		equal 1.773509e-12

variable k_z8990195300		equal 1.548694e-13

variable fX8990195300 atom "-v_k_x8990195300 * x"

variable fY8990195300 atom "-v_k_y8990195300 * y"

variable fZ8990195300 atom "-v_k_z8990195300 * z"

variable E8990195300 atom "v_k_x8990195300 * x * x /         2 + v_k_y8990195300 * y * y / 2 + v_k_z8990195300 * z * z / 2"

fix 8990195300 all addforce         v_fX8990195300 v_fY8990195300 v_fZ8990195300 energy v_E8990195300




variable coolx atom (9.269386030594033e-20+(-2.703426035144626e-21*vx))*-0.5000000000000001
variable cooly atom (9.269386030594033e-20+-2.703426035144626e-21*vy)*-0.5000000000000001
variable coolz atom (9.269386030594033e-20+-2.703426035144626e-21*vz)*-0.7071067811865476
fix 569202603907002 1 addforce v_coolx v_cooly v_coolz



timestep 1e-08


# Run simulation

run 10000




variable E equal 0
variable Ex atom (0.003*(319.039+-320779.0*(x-0)+163840000.0*(x-0)^2+3188.37*(y-0)+-158115000.0*(y-0)^2+-0.483258*(z-0)+16206.1*(z-0)^2))*cos((2*3.141592653589793)*0.0007170000000000001*step)
variable B equal 0
variable Ey atom (0.003*(-3.62944+3527.19*(x-0)+660075.0*(x-0)^2+320888.0*(y-0)+-1252000.0*(y-0)^2+1.91814*(z-0)+13573.5*(z-0)^2))*cos((2*3.141592653589793)*0.0007170000000000001*step)
variable C equal 0
variable Ez atom (0.003*(0.00111849+-0.582074*(x-0)+-789.5*(x-0)^2+2.08274*(y-0)+1408.33*(y-0)^2+-57.5482*(z-0)+153.512*(z-0)^2))*cos((2*3.141592653589793)*0.0007170000000000001*step)
fix 569202603907006 all efield v_Ex v_Ey v_Ez



timestep 1e-09


# Run simulation

run 10000


