##################################################################
# LAMMPS input file generated using pylion 0.5.3
# simulation name: test
#
# pylion is written and maintained by Dimitris Trypogeorgos
# and Elliot Bentine. Download it from
# https://bitbucket.org/dtrypogeorgos/pylion
#
# If you find it useful please cite <paper>.
##################################################################



units si
atom_style charge

# Creating simulation box...
boundary m m m
region simulationDomain block -0.001  0.001 -0.001 0.001 -0.001 0.001 units box
create_box 2 simulationDomain

# Configure neighbour list...
neighbor 1 nsq
neigh_modify once yes

# Configure pairwise interactions for long range Coulombics only...
pair_style coul/cut 10
pair_coeff * *

# Placing individual ions...


create_atoms 1 single -2.483822425516152e-05 -0.00012276333287935385 0.0007888064294794975 units box

create_atoms 1 single 4.508227455591573e-05 6.04378445426826e-05 4.401733558236036e-05 units box

create_atoms 1 single 3.840204311298281e-05 -0.00035913677603338623 0.00048052370597515394 units box

create_atoms 1 single 0.0005480753212171313 -0.00043580522952326004 -0.00017962498948844788 units box

create_atoms 1 single 0.0002537515616526139 -9.77469891370628e-05 0.00023960901654260477 units box

create_atoms 1 single 8.977502298363126e-05 -4.8451547273155736e-05 -0.0005959449770187955 units box

create_atoms 1 single -0.0008221085559998305 -0.0002659991860215061 0.0001964164729015905 units box

create_atoms 1 single -3.0299353447779304e-05 -3.753378123704995e-05 -0.0006065746374275437 units box

create_atoms 1 single -0.00047369701361150377 9.665424074265448e-05 -0.0004869211130498621 units box

create_atoms 1 single -0.00015185497009482312 3.246668951536938e-05 0.0006418854654316675 units box

create_atoms 1 single -1.989820345505986e-05 -7.227193329100463e-05 0.00010992876169640203 units box

create_atoms 1 single 1.6967487543570916e-05 -4.399117072684091e-05 0.00021961196323824438 units box

create_atoms 1 single -2.75332115912237e-06 -2.552639697271982e-06 -8.2657414627076e-06 units box

create_atoms 1 single 6.182702524763776e-05 7.933101632716177e-05 0.00010570281498717497 units box

create_atoms 1 single -0.00014897540807243365 7.236588794595246e-05 0.00027613039610689395 units box

create_atoms 1 single 9.40828871355432e-05 4.5343284150504344e-05 0.0003290477477885033 units box

create_atoms 1 single -0.000262253523340035 -0.0007786524601135016 -0.0003123794310568115 units box

create_atoms 1 single -0.00011285736335983527 0.0006797146149270475 0.00021640615116985448 units box

create_atoms 1 single -0.0002372225929150343 4.007017649678684e-05 -0.000920400008213219 units box

create_atoms 1 single -0.00022318459217212603 -0.0005732527429046668 0.0004063680129717032 units box


# Species...
mass 1 1.4944851e-26
set type 1 charge 1.6021764599999998e-19
group 1 type 1



create_atoms 2 single 0.00012611189263185102 -3.430535314859498e-05 -3.668161863115156e-05 units box

create_atoms 2 single -0.00015020136668239005 5.448069190689967e-05 4.1688494560835635e-05 units box

create_atoms 2 single -0.00010140557470517186 0.0003278975066375715 -0.00023329628727447157 units box

create_atoms 2 single -0.00021935866652506673 -0.0005828256362203499 -0.0002468295460873696 units box

create_atoms 2 single -0.0003134708075215513 -0.0005298464160056946 -0.00047359244795865845 units box

create_atoms 2 single -7.809138078402961e-05 -0.0001756326946680914 -0.0005209616860792274 units box

create_atoms 2 single -0.0006238534334047648 -9.519853086238804e-05 -0.00020503554794608144 units box

create_atoms 2 single -5.934422032275668e-07 1.475599637861352e-06 -3.34558522191581e-05 units box

create_atoms 2 single 2.4791177065002157e-05 3.994220007734944e-06 2.571205173424072e-05 units box

create_atoms 2 single 1.1173676830033086e-08 -1.9574545939217467e-08 6.283150549538025e-07 units box


# Species...
mass 2 5.3137248e-26
set type 2 charge 1.6021764599999998e-19
group 2 type 2


timestep 1e-06

# Configuring additional output to flush buffer during simulation...
thermo 10000
thermo_style custom step cpu
thermo_modify flush yes

# Time integration...

group nonRigidBody union all

fix timeIntegrator nonRigidBody nve



dump 9146229044 all custom 10 /Users/michaelmitchell/qlicS/data/2024-07-08_09-38-14/positions.txt id x y z vx vy vz





# Pseudopotential approximation for Linear Paul trap... (fixID=9148064918)


# SHO

variable k_x9148064918		equal 1.773509e-12

variable k_y9148064918		equal 1.773509e-12

variable k_z9148064918		equal 1.548694e-13

variable fX9148064918 atom "-v_k_x9148064918 * x"

variable fY9148064918 atom "-v_k_y9148064918 * y"

variable fZ9148064918 atom "-v_k_z9148064918 * z"

variable E9148064918 atom "v_k_x9148064918 * x * x /         2 + v_k_y9148064918 * y * y / 2 + v_k_z9148064918 * z * z / 2"

fix 9148064918 all addforce         v_fX9148064918 v_fY9148064918 v_fZ9148064918 energy v_E9148064918




variable coolx atom (9.269386030594033e-20+(-2.703426035144626e-21*vx))*-0.5000000000000001
variable cooly atom (9.269386030594033e-20+-2.703426035144626e-21*vy)*-0.5000000000000001
variable coolz atom (9.269386030594033e-20+-2.703426035144626e-21*vz)*-0.7071067811865476
fix 569202603907002 1 addforce v_coolx v_cooly v_coolz



timestep 1e-08


# Run simulation

run 20000


