##################################################################
# LAMMPS input file generated using pylion 0.5.3
# simulation name: test
#
# pylion is written and maintained by Dimitris Trypogeorgos
# and Elliot Bentine. Download it from
# https://bitbucket.org/dtrypogeorgos/pylion
#
# If you find it useful please cite <paper>.
##################################################################



units si
atom_style charge

# Creating simulation box...
boundary m m m
region simulationDomain block -0.001  0.001 -0.001 0.001 -0.001 0.001 units box
create_box 1 simulationDomain

# Configure neighbour list...
neighbor 1 nsq
neigh_modify once yes

# Configure pairwise interactions for long range Coulombics only...
pair_style coul/cut 10
pair_coeff * *

# Placing individual ions...


create_atoms 1 single -0.0004937783566614054 0.0007770375402158918 0.0003064912313547403 units box

create_atoms 1 single 0.0005346134258814817 -0.0002765368351441123 4.8624483240276334e-05 units box

create_atoms 1 single 0.0004992558485923482 0.00010435031502350515 -0.0002714181459996331 units box


# Species...
mass 1 1.4944851e-26
set type 1 charge 1.6021764599999998e-19
group 1 type 1


timestep 1e-06

# Configuring additional output to flush buffer during simulation...
thermo 10000
thermo_style custom step cpu
thermo_modify flush yes

# Time integration...

group nonRigidBody union all

fix timeIntegrator nonRigidBody nve



dump 9037979250 all custom 10 /Users/michaelmitchell/qlicS/data/2024-07-11_13-47-29/positions.txt id x y z vx vy vz





# Pseudopotential approximation for Linear Paul trap... (fixID=9042472413)


# SHO

variable k_x9042472413		equal 2.973789e-13

variable k_y9042472413		equal 2.973789e-13

variable k_z9042472413		equal 4.835556e-14

variable fX9042472413 atom "-v_k_x9042472413 * x"

variable fY9042472413 atom "-v_k_y9042472413 * y"

variable fZ9042472413 atom "-v_k_z9042472413 * z"

variable E9042472413 atom "v_k_x9042472413 * x * x /         2 + v_k_y9042472413 * y * y / 2 + v_k_z9042472413 * z * z / 2"

fix 9042472413 1 addforce         v_fX9042472413 v_fY9042472413 v_fZ9042472413 energy v_E9042472413




variable coolx atom (9.269386030594033e-20+(2.703426035144626e-21*vx))*-0.5000000000000001
variable cooly atom (9.269386030594033e-20+2.703426035144626e-21*vy)*-0.5000000000000001
variable coolz atom (9.269386030594033e-20+2.703426035144626e-21*vz)*-0.7071067811865476
fix 569202603907002 1 addforce v_coolx v_cooly v_coolz



timestep 1e-07


# Run simulation

run 50000


