##################################################################
# LAMMPS input file generated using pylion 0.5.3
# simulation name: test
#
# pylion is written and maintained by Dimitris Trypogeorgos
# and Elliot Bentine. Download it from
# https://bitbucket.org/dtrypogeorgos/pylion
#
# If you find it useful please cite <paper>.
##################################################################



units si
atom_style charge

# Creating simulation box...
boundary m m m
region simulationDomain block -0.001  0.001 -0.001 0.001 -0.001 0.001 units box
create_box 2 simulationDomain

# Configure neighbour list...
neighbor 1 nsq
neigh_modify once yes

# Configure pairwise interactions for long range Coulombics only...
pair_style coul/cut 10
pair_coeff * *

# Placing individual ions...


create_atoms 1 single 4.922763502246663e-05 0.00011265632751316329 -0.00033767302746681125 units box

create_atoms 1 single -0.00046068462207905856 0.00020848401306549123 0.0005963242894806711 units box

create_atoms 1 single -8.300761163097422e-05 9.564483083883922e-05 0.0008217476934506338 units box

create_atoms 1 single 0.0003033451965151353 -0.00039921269615345284 -0.00030251041411763426 units box

create_atoms 1 single 0.0003263268527189862 -7.357626392866854e-05 -0.0002152670418020256 units box

create_atoms 1 single 0.0002005095844101276 -0.0002093943458793735 0.0003241796092183956 units box

create_atoms 1 single -0.00010196744236393405 7.175183796067041e-05 9.029828013177103e-05 units box

create_atoms 1 single -0.0001313945977854336 0.0002525832353408208 0.0001742818580749401 units box

create_atoms 1 single 6.376187723074622e-05 0.0006630398241943341 0.0007366009155601864 units box

create_atoms 1 single -2.1374123342467545e-05 -8.416363496493131e-06 0.0002414665495324523 units box

create_atoms 1 single -0.0005792912679683239 0.00011127638934616932 0.0005276320879228609 units box

create_atoms 1 single 0.00044519461721118374 -1.987481395680828e-05 -6.837149719829351e-05 units box

create_atoms 1 single -7.725385069950279e-05 -8.910276209626254e-06 0.00018250514631874698 units box

create_atoms 1 single -0.0006732709237637377 -0.00042224060318493364 0.00018457958978545375 units box

create_atoms 1 single 0.00031101433286424986 0.0002897051236557274 0.0005312547111443748 units box

create_atoms 1 single -1.4704246783352894e-06 -1.771220518496665e-08 5.3547364509850005e-05 units box

create_atoms 1 single -1.3307483165968125e-05 2.9002140264275134e-05 0.00012779906670119345 units box

create_atoms 1 single 0.0007014629115791036 -0.00033316716708055685 0.0006041428491383443 units box

create_atoms 1 single -1.3696836827796378e-05 2.2809838108866418e-05 -0.00012023092855698004 units box

create_atoms 1 single -0.00029607382531617884 0.0007817327079867656 0.00032973073368287235 units box


# Species...
mass 1 1.4944851e-26
set type 1 charge 1.6021764599999998e-19
group 1 type 1



create_atoms 2 single -0.0003628089075933733 0.0002301206044951071 0.0002034921100778172 units box

create_atoms 2 single 0.00014516714437347536 0.0003176279054907648 0.00011501346276804076 units box

create_atoms 2 single -0.0005193499860183668 2.1713301593368898e-05 -0.0006056501377411138 units box

create_atoms 2 single -0.0002569916363906025 -0.00023799335671076724 0.00023972585725465508 units box

create_atoms 2 single 0.0004967562821490038 8.424236743738325e-05 -0.0007727680678241759 units box

create_atoms 2 single 0.0005641075207964344 -0.00018331566497151506 0.0003471016999417645 units box

create_atoms 2 single -0.0009291540901958273 0.000167469619343577 0.0003100682977557925 units box

create_atoms 2 single 0.0005257068058142525 -0.0003148359301949466 -0.0002742580161296043 units box

create_atoms 2 single -0.00011357340621618416 0.0006318266318304773 0.0006483329558669446 units box

create_atoms 2 single -1.2049786545741418e-05 -3.2974501814207754e-05 -1.2002202000303875e-05 units box


# Species...
mass 2 5.3137248e-26
set type 2 charge 1.6021764599999998e-19
group 2 type 2



# Configuring additional output to flush buffer during simulation...
thermo 10000
thermo_style custom step cpu
thermo_modify flush yes

# Time integration...

group nonRigidBody union all

fix timeIntegrator nonRigidBody nve



dump 9958324769 all custom 10 /Users/michaelmitchell/qlicS/data/2024-07-15_12-54-39/positions.txt id x y z vx vy vz





# Pseudopotential approximation for Linear Paul trap... (fixID=9958476507)


# SHO

variable k_x9958476507		equal 1.773509e-12

variable k_y9958476507		equal 1.773509e-12

variable k_z9958476507		equal 1.548694e-13

variable fX9958476507 atom "-v_k_x9958476507 * x"

variable fY9958476507 atom "-v_k_y9958476507 * y"

variable fZ9958476507 atom "-v_k_z9958476507 * z"

variable E9958476507 atom "v_k_x9958476507 * x * x /         2 + v_k_y9958476507 * y * y / 2 + v_k_z9958476507 * z * z / 2"

fix 9958476507 1 addforce         v_fX9958476507 v_fY9958476507 v_fZ9958476507 energy v_E9958476507





# Pseudopotential approximation for Linear Paul trap... (fixID=9958504889)


# SHO

variable k_x9958504889		equal 4.431431e-13

variable k_y9958504889		equal 4.431431e-13

variable k_z9958504889		equal 1.548694e-13

variable fX9958504889 atom "-v_k_x9958504889 * x"

variable fY9958504889 atom "-v_k_y9958504889 * y"

variable fZ9958504889 atom "-v_k_z9958504889 * z"

variable E9958504889 atom "v_k_x9958504889 * x * x /         2 + v_k_y9958504889 * y * y / 2 + v_k_z9958504889 * z * z / 2"

fix 9958504889 2 addforce         v_fX9958504889 v_fY9958504889 v_fZ9958504889 energy v_E9958504889




variable coolx atom (9.269386030594033e-20+(2.703426035144626e-21*vx))*-0.5000000000000001
variable cooly atom (9.269386030594033e-20+2.703426035144626e-21*vy)*-0.5000000000000001
variable coolz atom (9.269386030594033e-20+2.703426035144626e-21*vz)*-0.7071067811865476
fix 569202603907002 1 addforce v_coolx v_cooly v_coolz



timestep 1e-08


# Run simulation

run 20000


