##################################################################
# LAMMPS input file generated using pylion 0.5.3
# simulation name: test
#
# pylion is written and maintained by Dimitris Trypogeorgos
# and Elliot Bentine. Download it from
# https://bitbucket.org/dtrypogeorgos/pylion
#
# If you find it useful please cite <paper>.
##################################################################



units si
atom_style charge

# Creating simulation box...
boundary m m m
region simulationDomain block -0.001  0.001 -0.001 0.001 -0.001 0.001 units box
create_box 1 simulationDomain

# Configure neighbour list...
neighbor 1 nsq
neigh_modify once yes

# Configure pairwise interactions for long range Coulombics only...
pair_style coul/cut 10
pair_coeff * *

# Placing individual ions...


create_atoms 1 single -3.031286076728966e-05 -0.00041879023131749824 -0.00016232290016821702 units box

create_atoms 1 single -3.646462088860752e-05 0.00011685488384408129 0.00015673507827763518 units box

create_atoms 1 single -4.7418635431909794e-05 -0.0002183100289982179 -0.0006436380756074033 units box

create_atoms 1 single 0.00017995087435541545 -7.723433736459045e-05 -0.0007678091274730364 units box

create_atoms 1 single 0.0004840244078893402 0.0006294125086443887 0.0002603114471918104 units box

create_atoms 1 single -0.00023586689195092064 -0.00023113012495105904 0.0004980918545912548 units box

create_atoms 1 single 0.0001108878007463488 1.8398752575051555e-05 0.0008918975119285219 units box

create_atoms 1 single 3.5990600272559245e-05 0.00012170082337503999 0.00018353801997385798 units box

create_atoms 1 single -0.0004203017338421469 0.00030394648613463475 -0.0006479280744229234 units box

create_atoms 1 single -0.0003199608099018373 0.0006170926942102133 -0.0006655970993790591 units box

create_atoms 1 single -0.0001228339110457454 -0.0005064873052159075 -0.0001939191270472698 units box

create_atoms 1 single -0.00036002390384617006 0.0003161417898985176 3.031634668568031e-05 units box

create_atoms 1 single 9.784265437649729e-05 9.09216093097985e-05 -0.0005238073074173401 units box

create_atoms 1 single -6.093226016814172e-06 3.1904592336744736e-05 -0.0006324898177234281 units box

create_atoms 1 single 0.00015297305993827113 2.5116403497761534e-05 0.0002800887637516246 units box

create_atoms 1 single 0.0002075979832510141 -0.0007091648992794354 -0.0002969579070371306 units box

create_atoms 1 single 0.0003089774336825864 -0.00014549290783936008 0.00039206522873959116 units box

create_atoms 1 single 6.9439948389364144e-06 6.789632845053236e-06 -0.0008130490585426705 units box

create_atoms 1 single 0.0008147705594331367 8.036250830889221e-05 0.00018132657893491028 units box

create_atoms 1 single -0.0005136392921881838 -0.000618638721815121 0.00044881713650913105 units box

create_atoms 1 single -7.060279195130785e-05 -0.0006949069445331797 0.00010908911768522115 units box

create_atoms 1 single -7.9542815268956e-05 0.00025688876718952684 0.0005949113942617622 units box

create_atoms 1 single 1.368738839561111e-05 6.121955708067585e-09 6.15242513384072e-05 units box

create_atoms 1 single 2.350190339808361e-05 7.558352306405513e-05 0.00038627964780561314 units box

create_atoms 1 single 0.0002875622024197687 -0.00011519883324869602 -0.00021012628487152965 units box

create_atoms 1 single -0.00027953005798790024 -0.000425672107729831 -0.0008553470639100987 units box

create_atoms 1 single -2.8535535989384694e-06 -6.785782264648126e-07 -1.2280222524535144e-05 units box

create_atoms 1 single 6.770118427552052e-07 1.2516710407847125e-06 4.298457486097249e-05 units box

create_atoms 1 single -0.00036680733731477407 0.00024034050871023688 -0.0007008914952960881 units box

create_atoms 1 single -0.0003234895026312135 0.0006466416310447938 0.00018651004098434762 units box

create_atoms 1 single -5.8412942317200855e-05 0.0008692725568764545 2.176837816817657e-05 units box

create_atoms 1 single 1.1184903028412851e-05 8.544145000017037e-05 0.0003774143003892689 units box

create_atoms 1 single 0.0007799356866730056 0.00021213146308149842 -0.00020571619397867096 units box

create_atoms 1 single -0.00013297571830001533 0.0001084376474585445 -0.0009499631317413926 units box

create_atoms 1 single -0.00032920002656096174 7.423940786414784e-05 -0.0005588386396817934 units box

create_atoms 1 single 0.0003168577747036413 5.8877362762270746e-06 0.0004693001518599415 units box

create_atoms 1 single 0.000428885404805519 8.237960273298247e-05 0.0006637029537675524 units box

create_atoms 1 single 0.00011859130457094323 9.954032444900027e-05 -0.000721118269010779 units box

create_atoms 1 single -0.000113444175839584 -2.1042045381792646e-05 -1.5140357879418402e-05 units box

create_atoms 1 single 0.0001234877683489555 -0.00011430549938531858 0.00023198173016033982 units box

create_atoms 1 single 6.40224234160039e-05 -0.00023111613286271547 5.927235298977102e-06 units box

create_atoms 1 single 0.00012319452421771145 -0.000387960236115939 -0.000677933602312645 units box

create_atoms 1 single -0.00016603299585642801 -7.213015715449981e-06 0.00042253598002973844 units box

create_atoms 1 single -0.0003189491976108971 0.00010192641297171856 0.00029348612472107155 units box

create_atoms 1 single 3.422734616544627e-05 -3.592316311475726e-05 -9.268363822866544e-05 units box

create_atoms 1 single 1.2123465667275667e-07 -7.990232337289406e-08 -4.371550365766731e-07 units box

create_atoms 1 single 0.00022089261645411314 0.0002979719611868576 -0.0005593366803039843 units box

create_atoms 1 single 2.0347037093139714e-05 -0.00017931441327154182 -9.107595273391584e-05 units box

create_atoms 1 single -9.784589506860331e-05 -0.0003051011178298289 0.0003205113399436713 units box

create_atoms 1 single 0.0001635265873600415 0.0003225711829933883 -0.0007896793527755367 units box


# Species...
mass 1 1.4944851e-26
set type 1 charge 1.6021764599999998e-19
group 1 type 1


timestep 1e-06

# Configuring additional output to flush buffer during simulation...
thermo 10000
thermo_style custom step cpu
thermo_modify flush yes

# Time integration...

group nonRigidBody union all

fix timeIntegrator nonRigidBody nve



dump 9210883811 all custom 10 /Users/michaelmitchell/qlicS/data/2024-06-26_22-09-05/positions.txt id x y z vx vy vz




variable coolx atom (9.269386030594033e-20+(-2.703426035144626e-21*vx))*-0.5000000000000001
variable cooly atom (9.269386030594033e-20+-2.703426035144626e-21*vy)*-0.5000000000000001
variable coolz atom (9.269386030594033e-20+-2.703426035144626e-21*vz)*-0.7071067811865476
fix 569202603907002 1 addforce v_coolx v_cooly v_coolz



timestep 1e-08


# Run simulation

run 10000




variable E equal 0
variable Ex atom (0.003*(319.039+-320779.0*(x-0)+163840000.0*(x-0)^2+3188.37*(y-0)+-158115000.0*(y-0)^2+-0.483258*(z-0)+16206.1*(z-0)^2))*cos((2*3.141592653589793)*0.0007170000000000001*step)
variable B equal 0
variable Ey atom (0.003*(-3.62944+3527.19*(x-0)+660075.0*(x-0)^2+320888.0*(y-0)+-1252000.0*(y-0)^2+1.91814*(z-0)+13573.5*(z-0)^2))*cos((2*3.141592653589793)*0.0007170000000000001*step)
variable C equal 0
variable Ez atom (0.003*(0.00111849+-0.582074*(x-0)+-789.5*(x-0)^2+2.08274*(y-0)+1408.33*(y-0)^2+-57.5482*(z-0)+153.512*(z-0)^2))*cos((2*3.141592653589793)*0.0007170000000000001*step)
fix 569202603907006 all efield v_Ex v_Ey v_Ez



timestep 1e-09


# Run simulation

run 10000


