##################################################################
# LAMMPS input file generated using pylion 0.5.3
# simulation name: test
#
# pylion is written and maintained by Dimitris Trypogeorgos
# and Elliot Bentine. Download it from
# https://bitbucket.org/dtrypogeorgos/pylion
#
# If you find it useful please cite <paper>.
##################################################################



units si
atom_style charge

# Creating simulation box...
boundary m m m
region simulationDomain block -0.001  0.001 -0.001 0.001 -0.001 0.001 units box
create_box 1 simulationDomain

# Configure neighbour list...
neighbor 1 nsq
neigh_modify once yes

# Configure pairwise interactions for long range Coulombics only...
pair_style coul/cut 10
pair_coeff * *

# Placing individual ions...


create_atoms 1 single 5.225717945663145e-05 0.00026940583653318784 5.504423544992545e-07 units box

create_atoms 1 single 0.00010247166665081998 -0.00020067613992859868 9.378865910389903e-05 units box

create_atoms 1 single 3.4522520608148184e-05 3.6085747384923045e-05 0.00030188650815044085 units box

create_atoms 1 single 6.047164170990483e-05 2.1437603900550838e-05 0.00018515064168555831 units box

create_atoms 1 single -0.0005062674035382578 0.0003158663922443266 0.0004369062169825474 units box

create_atoms 1 single -0.0003086085801314688 0.00029994837455748954 -0.0007939428452385417 units box

create_atoms 1 single 0.00025120436193237734 0.00018854317217507007 0.0006065811605902948 units box

create_atoms 1 single -0.00026074352063629457 9.626159480207644e-05 -0.0007446029292147621 units box

create_atoms 1 single -0.00013371677354890742 0.0002571625678741821 -0.000431026153755376 units box

create_atoms 1 single -0.000561936140265145 0.000377135333895853 0.00048534749051448484 units box

create_atoms 1 single -9.138573690493165e-06 -1.0133205213784375e-05 0.0003833595585436216 units box

create_atoms 1 single 0.0003143449807688148 -0.0006544279620393697 0.0006175023830294149 units box

create_atoms 1 single 2.8952844325545744e-06 -2.6465192909075187e-05 -3.0196507523881042e-05 units box

create_atoms 1 single 0.0002916237595274877 -0.0003651519323326529 0.000856757199249612 units box

create_atoms 1 single -0.0005220859035230485 0.0005818083812102662 -0.0005496744303543673 units box

create_atoms 1 single -3.403904558845635e-05 0.0005766640792026537 -0.0002550135047240212 units box

create_atoms 1 single 4.480297185977234e-06 -3.126833527728319e-05 8.291353429864074e-05 units box

create_atoms 1 single 0.0001987635576359708 -0.0001225405867173343 0.0005797306868426306 units box

create_atoms 1 single 7.033966460513905e-05 4.520776014561568e-06 -3.102785763139896e-05 units box

create_atoms 1 single -0.0003484051666861321 0.0002829106787298038 0.0006936697486109976 units box

create_atoms 1 single 0.00040457882654450716 -6.991382788552578e-05 -0.00016003205268265848 units box

create_atoms 1 single 0.00018661316292500042 0.0002380889849666741 1.5321072647632942e-06 units box

create_atoms 1 single 9.662271580281673e-05 0.00016943717803589932 2.0019289484361666e-05 units box

create_atoms 1 single -7.943415315194639e-05 -0.00023908615415574474 0.0002195560362104839 units box

create_atoms 1 single 0.00011292977386008178 8.044556352128418e-05 -6.349391587662199e-05 units box

create_atoms 1 single -0.0005573928066428326 -0.0002472389566969967 0.0006219973124932873 units box

create_atoms 1 single 0.00018283805114343863 3.754013135884031e-05 -0.00013780408428262664 units box

create_atoms 1 single 0.00010248608439273005 0.0004760995393358558 0.0008384593484166198 units box

create_atoms 1 single -0.00013506210747985366 9.014640501335706e-06 -6.371708622220091e-05 units box

create_atoms 1 single -0.0006923269495731421 0.0005977654805424538 -4.6507238551448154e-05 units box

create_atoms 1 single 3.014426189108221e-07 5.117632548714979e-05 4.146257122502884e-05 units box

create_atoms 1 single -0.00021459149584429938 -0.0005412465873482792 0.00026672695513751515 units box

create_atoms 1 single -0.0002533753061861371 0.0002640936770185896 -0.0006850458538410771 units box

create_atoms 1 single 7.006530913867598e-05 -0.00018138435387087258 0.0009386916317849247 units box

create_atoms 1 single -7.723962436898082e-05 0.0007959393583248861 0.00046546365877875084 units box

create_atoms 1 single -0.00012840237858492123 0.00015984105418231342 -0.0001126649596578399 units box

create_atoms 1 single -5.3392599141599e-05 -5.542283701213384e-05 -3.6270494614146e-05 units box

create_atoms 1 single 0.0001528487555539234 -1.7883870198153405e-05 -0.0002522080216086433 units box

create_atoms 1 single -0.00016166316958888575 0.0007930469888564212 0.0004799407881874675 units box

create_atoms 1 single 0.00024382624637134205 0.0007681077093611955 9.856271415676733e-05 units box

create_atoms 1 single -6.497921416684711e-05 -7.287919045137188e-05 -0.0006849513845125422 units box

create_atoms 1 single -0.00026771867154668156 2.469179780989789e-05 7.209665220987857e-05 units box

create_atoms 1 single -0.00016914916449066792 -0.00043430333237687177 -9.899900194319865e-05 units box

create_atoms 1 single -6.92365355410226e-05 -0.00026463603642443324 -4.0175418386484035e-05 units box

create_atoms 1 single -0.00041667698656036324 -0.00011122253513622399 0.0002476371511347544 units box

create_atoms 1 single -3.576054340219675e-05 0.00019708342036805113 0.0006607204876477199 units box

create_atoms 1 single -0.00012118237573294345 0.0006305644220096317 9.99956995420892e-05 units box

create_atoms 1 single -0.00025277544884591985 -0.0002782642636871265 0.0008780644296147957 units box

create_atoms 1 single -0.000204062409607106 8.895475953631424e-05 -0.000513771513398331 units box

create_atoms 1 single -0.0002885629698731487 -0.00010177310831772728 0.0001671510382628144 units box


# Species...
mass 1 6.642156e-26
set type 1 charge 1.6021764599999998e-19
group 1 type 1


timestep 1e-08

# Configuring additional output to flush buffer during simulation...
thermo 10000
thermo_style custom step cpu
thermo_modify flush yes

# Time integration...

group nonRigidBody union all

fix timeIntegrator nonRigidBody nve




# Pseudopotential approximation for Linear Paul trap... (fixID=9016554443)


# SHO

variable k_x9016554443		equal 3.390275e-13

variable k_y9016554443		equal 3.390275e-13

variable k_z9016554443		equal 1.548694e-13

variable fX9016554443 atom "-v_k_x9016554443 * x"

variable fY9016554443 atom "-v_k_y9016554443 * y"

variable fZ9016554443 atom "-v_k_z9016554443 * z"

variable E9016554443 atom "v_k_x9016554443 * x * x / 2 + v_k_y9016554443 * y * y / 2 + v_k_z9016554443 * z * z / 2"

fix 9016554443 all addforce v_fX9016554443 v_fY9016554443 v_fZ9016554443 energy v_E9016554443





# Adding a langevin bath...

fix 13394405888 all langevin 0.000000e+00 0.000000e+00 1.000000e-05 1337




dump 8949067763 all custom 10 positions.txt id x y z




fix 8953476861 all ave/atom 1 20 20 vx vy vz


dump 13457696791 all custom 200 secv.txt id f_8953476861[1] f_8953476861[2] f_8953476861[3]





# Run simulation

run 10000


