##################################################################
# LAMMPS input file generated using pylion 0.5.3
# simulation name: test
#
# pylion is written and maintained by Dimitris Trypogeorgos
# and Elliot Bentine. Download it from
# https://bitbucket.org/dtrypogeorgos/pylion
#
# If you find it useful please cite <paper>.
##################################################################



units si
atom_style charge

# Creating simulation box...
boundary m m m
region simulationDomain block -0.001  0.001 -0.001 0.001 -0.001 0.001 units box
create_box 1 simulationDomain

# Configure neighbour list...
neighbor 1 nsq
neigh_modify once yes

# Configure pairwise interactions for long range Coulombics only...
pair_style coul/cut 10
pair_coeff * *

# Placing individual ions...


create_atoms 1 single 1.2671968328735456e-05 -2.601789250853326e-05 -0.00026446173866030476 units box

create_atoms 1 single -0.00045401647524252774 -0.0003340708158636594 -0.0002592233722544792 units box

create_atoms 1 single -0.00012682824303424944 0.00042675065117745743 -0.0003867030480249107 units box

create_atoms 1 single 0.000167244197283298 -4.4872095529524897e-05 -0.00011052451490633483 units box

create_atoms 1 single 0.0007758251467382398 0.00044971591172333534 0.0003353107803874089 units box

create_atoms 1 single -0.0001919100659092085 -8.66002156774417e-05 -0.0005912695099289044 units box

create_atoms 1 single 0.00034688973820423306 0.000471037651760475 0.0006838032344372605 units box

create_atoms 1 single -1.2482957710874824e-06 3.721703494947541e-05 -3.336383128126085e-06 units box

create_atoms 1 single -0.0008245588821922994 0.00023785136563004165 -8.031816075534075e-05 units box

create_atoms 1 single 0.0005561134260557441 -0.0006880848900986888 0.00046019799033107157 units box

create_atoms 1 single 0.00012727727885350956 7.64137898483587e-05 -0.0009877584582144816 units box

create_atoms 1 single 0.00038078074026453364 -0.0003196428662453989 -0.0005154684542661621 units box

create_atoms 1 single 0.00013986216903092997 -0.00019430300260526675 -0.0006555096837757452 units box

create_atoms 1 single -7.391072966826403e-05 0.0007765353950873209 -5.826538327631851e-05 units box

create_atoms 1 single -0.0007901259279313131 -0.0004762859016112751 0.00015534756231816346 units box

create_atoms 1 single -0.00041311127319109846 -3.465286807936561e-05 0.00035581056946484054 units box

create_atoms 1 single 0.0001866867002871733 0.00021314972963099542 0.0003682508796927594 units box

create_atoms 1 single -0.00010351015386579736 0.00020333265620177269 -0.0006763379853773692 units box

create_atoms 1 single 9.923789942757837e-05 0.00038855191785543505 0.0005226579947742039 units box

create_atoms 1 single 1.8706168580039034e-06 -3.045096927786801e-05 0.0005160749291949244 units box

create_atoms 1 single -1.6203861060936542e-05 1.214416853536004e-05 -1.023219168331184e-05 units box

create_atoms 1 single 8.204762532609192e-06 6.227416566359644e-05 0.0007805795733189456 units box

create_atoms 1 single -0.00016677855030257726 -3.162825034268652e-05 -0.0007725219482214742 units box

create_atoms 1 single 0.0004529587304533297 0.0004346389366429605 0.00040704834380263564 units box

create_atoms 1 single -0.0005902345677313701 -5.337862191082435e-05 -0.00038978434636095257 units box

create_atoms 1 single 3.835025642971576e-05 -2.354923986609352e-05 -0.00035139446280527613 units box

create_atoms 1 single -9.342482343057362e-05 0.000239954746017818 -0.0005313886780398198 units box

create_atoms 1 single 0.0005129368614945479 -0.0005379267060886539 -0.00020250386435609815 units box

create_atoms 1 single 2.478739427649914e-05 2.2610986601605865e-06 -0.0002295025623107954 units box

create_atoms 1 single -5.032101033198802e-05 -9.55074776149554e-06 -3.191132710023485e-05 units box

create_atoms 1 single 0.0003413170654986787 -0.0001441288517559366 -0.0009195239468447307 units box

create_atoms 1 single 0.0007532991571611355 -0.0003913760894785527 -1.4822634997120426e-06 units box

create_atoms 1 single 0.0005616461440373278 -0.0005388584655157699 -0.0005374156915706161 units box

create_atoms 1 single 0.00036407089934994307 -0.00028246783686171274 0.00028659520356755886 units box

create_atoms 1 single -0.000613879627861631 -0.000245273376587504 -0.00027653886843037264 units box

create_atoms 1 single 0.00011588029856021992 0.00012631021559968573 -5.316669458728092e-06 units box

create_atoms 1 single 4.313756915258086e-05 -0.00012839361925845512 0.00035235291902063846 units box

create_atoms 1 single 0.00035893671650339483 -8.747525803964946e-05 -0.00014452119754478833 units box

create_atoms 1 single -0.00017315508517859988 -0.00011083393500705092 0.0001241091594357622 units box

create_atoms 1 single -7.178213553591888e-05 -0.00021352144645547517 -0.0004631321305859142 units box

create_atoms 1 single -2.5661431089040387e-05 3.4942212163004964e-05 0.00028046265766061627 units box

create_atoms 1 single 3.0952320775419706e-05 7.765391844825369e-05 0.0002905719378947307 units box

create_atoms 1 single 0.00031556242651239016 -0.0003299958596718368 0.0008363234350681132 units box

create_atoms 1 single 9.737000143961657e-05 2.7705007750090537e-05 -1.1373140176234343e-05 units box

create_atoms 1 single -2.7679396246287524e-07 -1.0026964755456326e-05 7.434171827568951e-06 units box

create_atoms 1 single -2.355714386934446e-05 -8.865492408582428e-05 0.0001839643563117514 units box

create_atoms 1 single 0.0003442231793445442 -0.0007103751675304384 -0.0005606562327560844 units box

create_atoms 1 single 8.432120689144997e-05 -0.00045730230274568305 -0.000598294990374274 units box

create_atoms 1 single 4.717501332841289e-06 -0.0001791437661460772 -0.0008333045347482589 units box

create_atoms 1 single 2.973489174946939e-05 -2.009109271495162e-05 0.0009123318181777112 units box


# Species...
mass 1 1.4944851e-26
set type 1 charge 1.6021764599999998e-19
group 1 type 1


timestep 1e-06

# Configuring additional output to flush buffer during simulation...
thermo 10000
thermo_style custom step cpu
thermo_modify flush yes

# Time integration...

group nonRigidBody union all

fix timeIntegrator nonRigidBody nve



dump 8743601023 all custom 10 /Users/michaelmitchell/qlicS/data/2024-06-28_16-07-48/positions.txt id x y z vx vy vz





# Pseudopotential approximation for Linear Paul trap... (fixID=8743890071)


# SHO

variable k_x8743890071		equal 1.773509e-12

variable k_y8743890071		equal 1.773509e-12

variable k_z8743890071		equal 1.548694e-13

variable fX8743890071 atom "-v_k_x8743890071 * x"

variable fY8743890071 atom "-v_k_y8743890071 * y"

variable fZ8743890071 atom "-v_k_z8743890071 * z"

variable E8743890071 atom "v_k_x8743890071 * x * x /         2 + v_k_y8743890071 * y * y / 2 + v_k_z8743890071 * z * z / 2"

fix 8743890071 all addforce         v_fX8743890071 v_fY8743890071 v_fZ8743890071 energy v_E8743890071




variable coolx atom (9.269386030594033e-20+(-2.703426035144626e-21*vx))*-0.5000000000000001
variable cooly atom (9.269386030594033e-20+-2.703426035144626e-21*vy)*-0.5000000000000001
variable coolz atom (9.269386030594033e-20+-2.703426035144626e-21*vz)*-0.7071067811865476
fix 569202603907002 1 addforce v_coolx v_cooly v_coolz



timestep 1e-08


# Run simulation

run 10000




variable E equal 0
variable Ex atom (0.003*(319.039+-320779.0*(x-0)+163840000.0*(x-0)^2+3188.37*(y-0)+-158115000.0*(y-0)^2+-0.483258*(z-0)+16206.1*(z-0)^2))*cos((2*3.141592653589793)*0.0007170000000000001*step)
variable B equal 0
variable Ey atom (0.003*(-3.62944+3527.19*(x-0)+660075.0*(x-0)^2+320888.0*(y-0)+-1252000.0*(y-0)^2+1.91814*(z-0)+13573.5*(z-0)^2))*cos((2*3.141592653589793)*0.0007170000000000001*step)
variable C equal 0
variable Ez atom (0.003*(0.00111849+-0.582074*(x-0)+-789.5*(x-0)^2+2.08274*(y-0)+1408.33*(y-0)^2+-57.5482*(z-0)+153.512*(z-0)^2))*cos((2*3.141592653589793)*0.0007170000000000001*step)
fix 569202603907006 all efield v_Ex v_Ey v_Ez



timestep 1e-09


# Run simulation

run 10000


