##################################################################
# LAMMPS input file generated using pylion 0.5.3
# simulation name: test
#
# pylion is written and maintained by Dimitris Trypogeorgos
# and Elliot Bentine. Download it from
# https://bitbucket.org/dtrypogeorgos/pylion
#
# If you find it useful please cite <paper>.
##################################################################



units si
atom_style charge

# Creating simulation box...
boundary m m m
region simulationDomain block -0.001  0.001 -0.001 0.001 -0.001 0.001 units box
create_box 1 simulationDomain

# Configure neighbour list...
neighbor 1 nsq
neigh_modify once yes

# Configure pairwise interactions for long range Coulombics only...
pair_style coul/cut 10
pair_coeff * *

# Placing individual ions...


create_atoms 1 single 2.9612184092463777e-05 -3.891391618959642e-05 0.000434828664382908 units box

create_atoms 1 single -0.0005403879288280207 0.0004899875091854087 -0.00010815255790965422 units box

create_atoms 1 single -0.0002030134989312699 0.0002063413176846771 -0.0006545720780906568 units box


# Species...
mass 1 1.4944851e-26
set type 1 charge 1.6021764599999998e-19
group 1 type 1


timestep 1e-06

# Configuring additional output to flush buffer during simulation...
thermo 10000
thermo_style custom step cpu
thermo_modify flush yes

# Time integration...

group nonRigidBody union all

fix timeIntegrator nonRigidBody nve



dump 9404608910 all custom 10 /Users/michaelmitchell/qlicS/data/2024-07-11_13-27-16/positions.txt id x y z vx vy vz





# Pseudopotential approximation for Linear Paul trap... (fixID=9409130782)


# SHO

variable k_x9409130782		equal 1.773509e-12

variable k_y9409130782		equal 1.773509e-12

variable k_z9409130782		equal 1.548694e-13

variable fX9409130782 atom "-v_k_x9409130782 * x"

variable fY9409130782 atom "-v_k_y9409130782 * y"

variable fZ9409130782 atom "-v_k_z9409130782 * z"

variable E9409130782 atom "v_k_x9409130782 * x * x /         2 + v_k_y9409130782 * y * y / 2 + v_k_z9409130782 * z * z / 2"

fix 9409130782 1 addforce         v_fX9409130782 v_fY9409130782 v_fZ9409130782 energy v_E9409130782




variable coolx atom (9.269386030594033e-20+(2.703426035144626e-21*vx))*-0.5000000000000001
variable cooly atom (9.269386030594033e-20+2.703426035144626e-21*vy)*-0.5000000000000001
variable coolz atom (9.269386030594033e-20+2.703426035144626e-21*vz)*-0.7071067811865476
fix 569202603907002 1 addforce v_coolx v_cooly v_coolz



timestep 1e-07


# Run simulation

run 50000


