##################################################################
# LAMMPS input file generated using pylion 0.5.3
# simulation name: test
#
# pylion is written and maintained by Dimitris Trypogeorgos
# and Elliot Bentine. Download it from
# https://bitbucket.org/dtrypogeorgos/pylion
#
# If you find it useful please cite <paper>.
##################################################################



units si
atom_style charge

# Creating simulation box...
boundary m m m
region simulationDomain block -0.001  0.001 -0.001 0.001 -0.001 0.001 units box
create_box 1 simulationDomain

# Configure neighbour list...
neighbor 1 nsq
neigh_modify once yes

# Configure pairwise interactions for long range Coulombics only...
pair_style coul/cut 10
pair_coeff * *

# Placing individual ions...


create_atoms 1 single -0.0004181109283602675 -8.360246017345037e-05 0.0006985827767331844 units box


# Species...
mass 1 1.4944851e-26
set type 1 charge 1.6021764599999998e-19
group 1 type 1



# Configuring additional output to flush buffer during simulation...
thermo 10000
thermo_style custom step cpu
thermo_modify flush yes

# Time integration...

group nonRigidBody union all

fix timeIntegrator nonRigidBody nve



#

 

E

n

a

b

l

i

n

g

 

G

P

U

 

a

c

c

e

l

e

r

a

t

i

o

n

 

v

i

a

 

C

U

D

A

.

.

.




p

a

c

k

a

g

e

 

g

p

u

 

1




s

u

f

f

i

x

 

g

p

u






dump 9203114444 all custom 1 /Users/michaelmitchell/qlicS/data/2024-07-15_14-41-53/positions.txt id x y z vx vy vz





# Pseudopotential approximation for Linear Paul trap... (fixID=9203243402)


# SHO

variable k_x9203243402		equal 2.973789e-13

variable k_y9203243402		equal 2.973789e-13

variable k_z9203243402		equal 4.835556e-14

variable fX9203243402 atom "-v_k_x9203243402 * x"

variable fY9203243402 atom "-v_k_y9203243402 * y"

variable fZ9203243402 atom "-v_k_z9203243402 * z"

variable E9203243402 atom "v_k_x9203243402 * x * x /         2 + v_k_y9203243402 * y * y / 2 + v_k_z9203243402 * z * z / 2"

fix 9203243402 1 addforce         v_fX9203243402 v_fY9203243402 v_fZ9203243402 energy v_E9203243402




variable coolx atom (9.269386030594033e-20+(2.703426035144626e-21*vx))*-0.5000000000000001
variable cooly atom (9.269386030594033e-20+2.703426035144626e-21*vy)*-0.5000000000000001
variable coolz atom (9.269386030594033e-20+2.703426035144626e-21*vz)*-0.7071067811865476
fix 569202603907002 1 addforce v_coolx v_cooly v_coolz



variable E equal 0
variable Ex atom (0.1*(100+0*(x-0)+0*(x-0)^2+0*(y-0)+0*(y-0)^2+0*(z-0)+0*(z-0)^2))*cos((2*3.141592653589793)*0.0071*step)
variable B equal 0
variable Ey atom (0.1*(0+0*(x-0)+0*(x-0)^2+0.0*(y-0)+0.0*(y-0)^2+0*(z-0)+0*(z-0)^2))*cos((2*3.141592653589793)*0.0071*step)
variable C equal 0
variable Ez atom (0.1*(0+0*(x-0)+0*(x-0)^2+0*(y-0)+0*(y-0)^2+0*(z-0)+0*(z-0)^2))*cos((2*3.141592653589793)*0.0071*step)
fix 469202603907006 all efield v_Ex v_Ey v_Ez



timestep 1e-08


# Run simulation

run 40000





# Deleting a fix by uid

unfix 469202603907006




variable E equal 0
variable Ex atom (0.1*(100+0*(x-0)+0*(x-0)^2+0*(y-0)+0*(y-0)^2+0*(z-0)+0*(z-0)^2))*cos((2*3.141592653589793)*0.00071*step)
variable B equal 0
variable Ey atom (0.1*(0+0*(x-0)+0*(x-0)^2+0.0*(y-0)+0.0*(y-0)^2+0*(z-0)+0*(z-0)^2))*cos((2*3.141592653589793)*0.00071*step)
variable C equal 0
variable Ez atom (0.1*(0+0*(x-0)+0*(x-0)^2+0*(y-0)+0*(y-0)^2+0*(z-0)+0*(z-0)^2))*cos((2*3.141592653589793)*0.00071*step)
fix 469202603907007 all efield v_Ex v_Ey v_Ez



timestep 1e-09


# Run simulation

run 150000





# Deleting a fix by uid

unfix 469202603907007




variable E equal 0
variable Ex atom (0.1*(100+0*(x-0)+0*(x-0)^2+0*(y-0)+0*(y-0)^2+0*(z-0)+0*(z-0)^2))*cos((2*3.141592653589793)*0.0142*step)
variable B equal 0
variable Ey atom (0.1*(0+0*(x-0)+0*(x-0)^2+0.0*(y-0)+0.0*(y-0)^2+0*(z-0)+0*(z-0)^2))*cos((2*3.141592653589793)*0.0142*step)
variable C equal 0
variable Ez atom (0.1*(0+0*(x-0)+0*(x-0)^2+0*(y-0)+0*(y-0)^2+0*(z-0)+0*(z-0)^2))*cos((2*3.141592653589793)*0.0142*step)
fix 469202603907008 all efield v_Ex v_Ey v_Ez



timestep 2e-08


# Run simulation

run 40000


