##################################################################
# LAMMPS input file generated using pylion 0.5.3
# simulation name: test
#
# pylion is written and maintained by Dimitris Trypogeorgos
# and Elliot Bentine. Download it from
# https://bitbucket.org/dtrypogeorgos/pylion
#
# If you find it useful please cite <paper>.
##################################################################



units si
atom_style charge

# Creating simulation box...
boundary m m m
region simulationDomain block -0.001  0.001 -0.001 0.001 -0.001 0.001 units box
create_box 1 simulationDomain

# Configure neighbour list...
neighbor 1 nsq
neigh_modify once yes

# Configure pairwise interactions for long range Coulombics only...
pair_style coul/cut 10
pair_coeff * *

# Placing individual ions...


create_atoms 1 single -0.000326588794766821 -0.0006850546894834696 -0.0002487586507735496 units box


# Species...
mass 1 1.4944851e-26
set type 1 charge 1.6021764599999998e-19
group 1 type 1


timestep 1e-06

# Configuring additional output to flush buffer during simulation...
thermo 10000
thermo_style custom step cpu
thermo_modify flush yes

# Time integration...

group nonRigidBody union all

fix timeIntegrator nonRigidBody nve



dump 9319461853 all custom 10 /Users/michaelmitchell/qlicS/data/2024-07-11_16-44-17/positions.txt id x y z vx vy vz





# Pseudopotential approximation for Linear Paul trap... (fixID=9319760059)


# SHO

variable k_x9319760059		equal 2.973789e-13

variable k_y9319760059		equal 2.973789e-13

variable k_z9319760059		equal 4.835556e-14

variable fX9319760059 atom "-v_k_x9319760059 * x"

variable fY9319760059 atom "-v_k_y9319760059 * y"

variable fZ9319760059 atom "-v_k_z9319760059 * z"

variable E9319760059 atom "v_k_x9319760059 * x * x /         2 + v_k_y9319760059 * y * y / 2 + v_k_z9319760059 * z * z / 2"

fix 9319760059 1 addforce         v_fX9319760059 v_fY9319760059 v_fZ9319760059 energy v_E9319760059




variable coolx atom (9.269386030594033e-20+(2.703426035144626e-21*vx))*-0.5000000000000001
variable cooly atom (9.269386030594033e-20+2.703426035144626e-21*vy)*-0.5000000000000001
variable coolz atom (9.269386030594033e-20+2.703426035144626e-21*vz)*-0.7071067811865476
fix 569202603907002 1 addforce v_coolx v_cooly v_coolz



timestep 1e-09


# Run simulation

run 20000




timestep 1e-08


# Run simulation

run 20000


