##################################################################
# LAMMPS input file generated using pylion 0.5.3
# simulation name: test
#
# pylion is written and maintained by Dimitris Trypogeorgos
# and Elliot Bentine. Download it from
# https://bitbucket.org/dtrypogeorgos/pylion
#
# If you find it useful please cite <paper>.
##################################################################



units si
atom_style charge

# Creating simulation box...
boundary m m m
region simulationDomain block -0.001  0.001 -0.001 0.001 -0.001 0.001 units box
create_box 1 simulationDomain

# Configure neighbour list...
neighbor 1 nsq
neigh_modify once yes

# Configure pairwise interactions for long range Coulombics only...
pair_style coul/cut 10
pair_coeff * *

# Placing individual ions...


create_atoms 1 single -5.495708460369762e-05 4.9080136795137485e-05 -0.00024007597110519102 units box

create_atoms 1 single 0.0005837967674282898 5.580162772382978e-06 -0.0006981123959356816 units box

create_atoms 1 single 1.4317907087718786e-06 1.1112949132584993e-06 0.0004968193985787889 units box

create_atoms 1 single -0.0006791599756699282 0.0005060968753716785 9.849607067579974e-05 units box

create_atoms 1 single -0.00023127970841786127 0.00010183296275364769 0.0006255717821681862 units box

create_atoms 1 single -0.00014348528453148792 2.8219850985401248e-05 9.448254813371041e-05 units box

create_atoms 1 single 1.9001075676936414e-05 1.0690539881435789e-05 0.00034582532621317194 units box

create_atoms 1 single 0.0002504770836919187 -0.00037497554870219674 -0.0001271617393347799 units box

create_atoms 1 single 0.0002142326259660178 -0.0004639819655626674 0.0007554429874043153 units box

create_atoms 1 single -0.0001262799178969865 1.1239988688193663e-05 -0.00014084774902648508 units box

create_atoms 1 single -0.00052024267158927 0.00031120313594229434 -0.00015035497422500658 units box

create_atoms 1 single -0.00015832347795434817 -0.0001321307235550709 -0.0005735560916633642 units box

create_atoms 1 single 0.0007390797417207279 -0.0003279790197833783 0.00039333842808989504 units box

create_atoms 1 single 4.2477196865711036e-05 0.0001822964893623587 -0.00032680019130041336 units box

create_atoms 1 single 3.630175429565413e-05 -0.00042061052230886584 -0.00021033427406197562 units box

create_atoms 1 single -0.0001767971115141755 5.583098365758774e-05 -0.00018789639472217406 units box

create_atoms 1 single -4.755780119463722e-05 0.00010707986040017568 -1.6594095076545538e-05 units box

create_atoms 1 single -0.00023032852031458113 -0.0002500719327582803 1.0070345721595403e-05 units box

create_atoms 1 single 2.2306820797195615e-05 -2.9548571507265458e-05 -6.0713360419220544e-05 units box

create_atoms 1 single 3.721980152944742e-05 -9.776901197050454e-05 -0.00029820458820548236 units box

create_atoms 1 single 0.00044303750447266754 0.00024464698977930653 -0.0005918963893684241 units box

create_atoms 1 single -0.00018701424712564137 0.00012253526164160354 -0.00014826942286975728 units box

create_atoms 1 single -0.00026362899692725225 -0.00047931238784903617 6.731262540749311e-05 units box

create_atoms 1 single -0.00038947004016488124 0.00026051887019885324 -9.716280920541488e-05 units box

create_atoms 1 single 0.00020992653507807553 -2.9909927985085376e-05 0.0009391019236192496 units box

create_atoms 1 single 2.0776119567199297e-05 1.3786064509774924e-05 0.0008816943610132184 units box

create_atoms 1 single -6.583527945605862e-05 -0.00018255630592176237 0.00012816128521711407 units box

create_atoms 1 single 3.0127999846893774e-06 -6.732246882797855e-06 9.325829881399865e-06 units box

create_atoms 1 single -0.0001950814701613026 5.661350569989627e-05 0.0003889150950194532 units box

create_atoms 1 single -0.00012857493842331432 -4.143869594333496e-05 -0.0002866982809937415 units box

create_atoms 1 single -0.00020302913424732866 -0.0008568551487661416 0.00030735492564979095 units box

create_atoms 1 single -0.0002824860238243952 -0.00021866597145745983 -0.0004017317034299609 units box

create_atoms 1 single -1.6042551218824976e-05 1.2732939966969612e-05 0.0006855722508044595 units box

create_atoms 1 single -1.1629276035361012e-05 -0.00018297688475799753 -0.00034059968577242596 units box

create_atoms 1 single -7.876263399780542e-05 2.7967279000836047e-05 7.045848244156423e-05 units box

create_atoms 1 single 0.0004677080507530499 -5.739017244172842e-05 0.0007255546393011229 units box

create_atoms 1 single -9.181012340999218e-05 0.0004266692581603254 0.0003408158249997149 units box

create_atoms 1 single -6.220733352142654e-05 0.0001858723357876231 -0.00034975612460138867 units box

create_atoms 1 single -1.4882974892964471e-05 -4.6664489474884106e-05 0.0004438194784047488 units box

create_atoms 1 single 0.00010840806103492054 -0.00014832260450034786 0.00017260074929250082 units box

create_atoms 1 single 0.00013211644120673862 0.0007935990113303239 -0.0002373648987825448 units box

create_atoms 1 single -0.0005469330186090531 0.00044392545663887387 0.0006384300596171746 units box

create_atoms 1 single -2.0849485773365788e-06 -1.2277250932179197e-06 -3.968797928222841e-06 units box

create_atoms 1 single -0.00023358149398940698 -0.0007407271948170727 -9.910558762424352e-05 units box

create_atoms 1 single -6.459994508884924e-07 9.761222822549078e-07 1.1600768970149851e-06 units box

create_atoms 1 single -0.0002929819403874318 -0.00016726899085746944 -0.000592100503963165 units box

create_atoms 1 single 3.341239080999059e-05 -5.539632230517234e-05 0.0004135368855426306 units box

create_atoms 1 single 9.592940370442674e-05 0.00012166942036507323 -0.0008205257573375307 units box

create_atoms 1 single -0.00017857553523886104 3.364223969103062e-05 -0.0005268590066428287 units box

create_atoms 1 single -6.381512974841708e-06 0.00010928480568669968 -0.00029632001506109997 units box


# Species...
mass 1 1.4944851e-26
set type 1 charge 1.6021764599999998e-19
group 1 type 1


timestep 1e-06

# Configuring additional output to flush buffer during simulation...
thermo 10000
thermo_style custom step cpu
thermo_modify flush yes

# Time integration...

group nonRigidBody union all

fix timeIntegrator nonRigidBody nve



dump 9093593544 all custom 10 /Users/michaelmitchell/qlicS/data/2024-06-28_16-05-22/positions.txt id x y z vx vy vz





# Pseudopotential approximation for Linear Paul trap... (fixID=9101532606)


# SHO

variable k_x9101532606		equal 1.773509e-12

variable k_y9101532606		equal 1.773509e-12

variable k_z9101532606		equal 1.548694e-13

variable fX9101532606 atom "-v_k_x9101532606 * x"

variable fY9101532606 atom "-v_k_y9101532606 * y"

variable fZ9101532606 atom "-v_k_z9101532606 * z"

variable E9101532606 atom "v_k_x9101532606 * x * x /         2 + v_k_y9101532606 * y * y / 2 + v_k_z9101532606 * z * z / 2"

fix 9101532606 all addforce         v_fX9101532606 v_fY9101532606 v_fZ9101532606 energy v_E9101532606




variable coolx atom (9.269386030594033e-20+(-2.703426035144626e-21*vx))*-0.5000000000000001
variable cooly atom (9.269386030594033e-20+-2.703426035144626e-21*vy)*-0.5000000000000001
variable coolz atom (9.269386030594033e-20+-2.703426035144626e-21*vz)*-0.7071067811865476
fix 569202603907002 1 addforce v_coolx v_cooly v_coolz



timestep 1e-08


# Run simulation

run 10000




variable E equal 0
variable Ex atom (0.003*(319.039+-320779.0*(x-0)+163840000.0*(x-0)^2+3188.37*(y-0)+-158115000.0*(y-0)^2+-0.483258*(z-0)+16206.1*(z-0)^2))*cos((2*3.141592653589793)*0.0007170000000000001*step)
variable B equal 0
variable Ey atom (0.003*(-3.62944+3527.19*(x-0)+660075.0*(x-0)^2+320888.0*(y-0)+-1252000.0*(y-0)^2+1.91814*(z-0)+13573.5*(z-0)^2))*cos((2*3.141592653589793)*0.0007170000000000001*step)
variable C equal 0
variable Ez atom (0.003*(0.00111849+-0.582074*(x-0)+-789.5*(x-0)^2+2.08274*(y-0)+1408.33*(y-0)^2+-57.5482*(z-0)+153.512*(z-0)^2))*cos((2*3.141592653589793)*0.0007170000000000001*step)
fix 569202603907006 all efield v_Ex v_Ey v_Ez



timestep 1e-09


# Run simulation

run 10000


