##################################################################
# LAMMPS input file generated using pylion 0.5.3
# simulation name: test
#
# pylion is written and maintained by Dimitris Trypogeorgos
# and Elliot Bentine. Download it from
# https://bitbucket.org/dtrypogeorgos/pylion
#
# If you find it useful please cite <paper>.
##################################################################



units si
atom_style charge

# Creating simulation box...
boundary m m m
region simulationDomain block -0.001  0.001 -0.001 0.001 -0.001 0.001 units box
create_box 1 simulationDomain

# Configure neighbour list...
neighbor 1 nsq
neigh_modify once yes

# Configure pairwise interactions for long range Coulombics only...
pair_style coul/cut 10
pair_coeff * *

# Placing individual ions...


create_atoms 1 single 7.541415628513066e-05 -2.9220418726440106e-05 -9.096026950719688e-05 units box

create_atoms 1 single -0.0004067618087431796 0.00018462813435138835 0.000451562759866497 units box

create_atoms 1 single 8.422468504060727e-06 -1.0680907537099943e-05 -0.00047680142443977326 units box

create_atoms 1 single 5.0370637012139544e-05 -3.147292429110418e-05 0.00017942268320657643 units box

create_atoms 1 single -7.848764183146323e-05 0.00018221420607844718 -0.00035783155934067666 units box

create_atoms 1 single -0.00010939372989361953 0.00029803980509077925 1.5891525699367336e-05 units box

create_atoms 1 single 0.0001850543328900538 -9.642377355061596e-05 -6.341908463093823e-05 units box

create_atoms 1 single 0.00034876758529608616 -0.0002755577312447109 -0.0006786931116755437 units box

create_atoms 1 single 0.00016382295187929112 -2.2648467873948363e-05 -0.0003652123194504357 units box

create_atoms 1 single -0.00024758738452030894 -0.00042105339684830585 -0.0002081370844623995 units box

create_atoms 1 single -0.00014715606810634442 -2.2130993609601633e-05 0.00019118686993104672 units box

create_atoms 1 single 4.037609402245592e-05 0.000543906437097804 0.0006196633074646367 units box

create_atoms 1 single 0.00023500620494337692 -0.00012165592465991188 -0.00038577796032963283 units box

create_atoms 1 single 2.445546978881512e-05 3.4544759318907474e-05 0.00027693266156963666 units box

create_atoms 1 single 3.319407027783287e-05 0.00023539474667705118 -0.000512221390575985 units box

create_atoms 1 single -0.00029905624115751287 0.00011102962346739126 0.0008046013351080147 units box

create_atoms 1 single 7.505106282702692e-05 -5.098993556252249e-05 0.000785210566551867 units box

create_atoms 1 single -3.782932425675863e-06 -5.30539660187337e-06 -8.219463316493183e-06 units box

create_atoms 1 single -0.0003125419777794743 7.886352479323862e-05 0.00018392439589274239 units box

create_atoms 1 single 0.00035294442433753435 0.0002580921923830409 -0.00034201745528245135 units box

create_atoms 1 single 9.85263714050136e-05 -8.477234850709675e-06 0.00014685731370616922 units box

create_atoms 1 single 0.00034213534865595597 0.0003781078804413563 -9.886900762444645e-05 units box

create_atoms 1 single -9.828110320293231e-05 -0.00026286145216440924 -0.00010138281734645083 units box

create_atoms 1 single 1.1131217837469538e-05 -5.928534578584031e-05 0.0004725503847331538 units box

create_atoms 1 single -9.685282432239183e-05 0.0003858854317791203 0.00037803673231004875 units box

create_atoms 1 single -7.167158159957235e-05 9.33029572020972e-05 -6.442317216448944e-05 units box

create_atoms 1 single 6.258062987949709e-05 4.2230500913580194e-05 -5.897028245161353e-05 units box

create_atoms 1 single 9.591222701145785e-05 3.352793986336953e-06 0.00016683362815225178 units box

create_atoms 1 single 1.8715628774850107e-07 -3.096233992314793e-07 -2.7475791533560302e-06 units box

create_atoms 1 single -0.00031210844849647814 0.0006465561549028444 -0.000244795683012137 units box

create_atoms 1 single -6.967525883271564e-05 2.0542948888948838e-05 2.880147985416276e-05 units box

create_atoms 1 single 8.366309455928774e-05 1.7284948449904717e-05 0.0003055761552208661 units box

create_atoms 1 single 3.424409268260799e-05 9.174279190203277e-06 -5.5221309883379555e-05 units box

create_atoms 1 single -0.0003723477643160533 0.00023467954067605594 0.0001943420120426432 units box

create_atoms 1 single 6.710567810945366e-05 -0.00029685404206172545 -0.000582120998688028 units box

create_atoms 1 single 0.0001981108447562613 0.0002016178128245306 -0.000331681868347964 units box

create_atoms 1 single -0.00015258693129427194 0.00017107606170190995 -8.783743874198603e-05 units box

create_atoms 1 single -0.00020199073864205866 -0.000232938598877871 0.0004931039736391771 units box

create_atoms 1 single 0.00034810767268585863 0.0005041322767660631 -0.00027182603948343656 units box

create_atoms 1 single 0.00015685206281811938 -0.0006837551544825657 0.0004869801674355725 units box

create_atoms 1 single 1.6555071700773521e-06 -0.00039225138206626413 0.0005121970035773229 units box

create_atoms 1 single 0.00020644738705136636 0.00011362140272091021 -0.0003780168319314129 units box

create_atoms 1 single 0.00024972643151001124 6.228042270872626e-05 0.0009597476365940123 units box

create_atoms 1 single 0.0006693395218894275 -0.00012455121480084205 -0.00016827858816311536 units box

create_atoms 1 single -0.0002587416732323711 0.0007250015392701668 -0.0006219223949215243 units box

create_atoms 1 single -3.406622014293587e-05 -1.041336889567712e-05 -0.00019672857611626414 units box

create_atoms 1 single 0.00013012577658816192 -0.0002416210617437244 0.0006266455673754024 units box

create_atoms 1 single 4.388102508116462e-05 -0.000285671692769741 -0.0003585057081342721 units box

create_atoms 1 single -2.3124124201807036e-05 1.6709155537179286e-05 1.8940802195757937e-06 units box

create_atoms 1 single 0.0004505651447738825 0.0006200940715249948 -0.0001121809357207038 units box


# Species...
mass 1 1.4944851e-26
set type 1 charge 1.6021764599999998e-19
group 1 type 1


timestep 1e-06

# Configuring additional output to flush buffer during simulation...
thermo 10000
thermo_style custom step cpu
thermo_modify flush yes

# Time integration...

group nonRigidBody union all

fix timeIntegrator nonRigidBody nve



dump 8913131805 all custom 10 /Users/michaelmitchell/qlicS/data/2024-06-27_12-46-20/positions.txt id x y z vx vy vz





# Pseudopotential approximation for Linear Paul trap... (fixID=8921019188)


# SHO

variable k_x8921019188		equal 1.773509e-12

variable k_y8921019188		equal 1.773509e-12

variable k_z8921019188		equal 1.548694e-13

variable fX8921019188 atom "-v_k_x8921019188 * x"

variable fY8921019188 atom "-v_k_y8921019188 * y"

variable fZ8921019188 atom "-v_k_z8921019188 * z"

variable E8921019188 atom "v_k_x8921019188 * x * x /         2 + v_k_y8921019188 * y * y / 2 + v_k_z8921019188 * z * z / 2"

fix 8921019188 all addforce         v_fX8921019188 v_fY8921019188 v_fZ8921019188 energy v_E8921019188




variable coolx atom (9.269386030594033e-20+(-2.703426035144626e-21*vx))*-0.5000000000000001
variable cooly atom (9.269386030594033e-20+-2.703426035144626e-21*vy)*-0.5000000000000001
variable coolz atom (9.269386030594033e-20+-2.703426035144626e-21*vz)*-0.7071067811865476
fix 569202603907002 1 addforce v_coolx v_cooly v_coolz



timestep 1e-08


# Run simulation

run 10000




variable E equal 0
variable Ex atom (0.003*(319.039+-320779.0*(x-0)+163840000.0*(x-0)^2+3188.37*(y-0)+-158115000.0*(y-0)^2+-0.483258*(z-0)+16206.1*(z-0)^2))*cos((2*3.141592653589793)*0.0007170000000000001*step)
variable B equal 0
variable Ey atom (0.003*(-3.62944+3527.19*(x-0)+660075.0*(x-0)^2+320888.0*(y-0)+-1252000.0*(y-0)^2+1.91814*(z-0)+13573.5*(z-0)^2))*cos((2*3.141592653589793)*0.0007170000000000001*step)
variable C equal 0
variable Ez atom (0.003*(0.00111849+-0.582074*(x-0)+-789.5*(x-0)^2+2.08274*(y-0)+1408.33*(y-0)^2+-57.5482*(z-0)+153.512*(z-0)^2))*cos((2*3.141592653589793)*0.0007170000000000001*step)
fix 569202603907006 all efield v_Ex v_Ey v_Ez



timestep 1e-09


# Run simulation

run 10000


